TITLE :  STAP90 input data for example 4.1 with 1 Q4 element, together with benchmark-8
        (10:44:47 on May 25, 2025, Sunday)

C O N T R O L   I N F O R M A T I O N

      NUMBER OF NODAL POINTS . . . . . . . . . . (NUMNP)  =     8
      NUMBER OF ELEMENT GROUPS . . . . . . . . . (NUMEG)  =     1
      NUMBER OF LOAD CASES . . . . . . . . . . . (NLCASE) =     1
      SOLUTION MODE  . . . . . . . . . . . . . . (MODEX)  =     1
         EQ.0, DATA CHECK
         EQ.1, EXECUTION

 N O D A L   P O I N T   D A T A

    NODE       BOUNDARY                         NODAL POINT
   NUMBER  CONDITION  CODES                     COORDINATES
        1    1    1    1       0.00000e+00    1.00000e+00    0.00000e+00
        2    1    1    1       0.00000e+00    0.00000e+00    0.00000e+00
        3    0    0    1       2.00000e+00    5.00000e-01    0.00000e+00
        4    0    0    1       2.00000e+00    1.00000e+00    0.00000e+00
        5    1    1    1       0.00000e+00    5.00000e-01    0.00000e+00
        6    0    0    1       1.00000e+00    2.50000e-01    0.00000e+00
        7    0    0    1       2.00000e+00    7.50000e-01    0.00000e+00
        8    0    0    1       1.00000e+00    1.00000e+00    0.00000e+00

 EQUATION NUMBERS

   NODE NUMBER   DEGREES 	OF 	FREEDOM
        N           X    Y    Z    x    y    z
        1           0    0    0  N/A  N/A  N/A
        2           0    0    0  N/A  N/A  N/A
        3           1    2    0  N/A  N/A  N/A
        4           3    4    0  N/A  N/A  N/A
        5           0    0    0  N/A  N/A  N/A
        6           5    6    0  N/A  N/A  N/A
        7           7    8    0  N/A  N/A  N/A
        8           9   10    0  N/A  N/A  N/A

 L O A D   C A S E   D A T A

     LOAD CASE NUMBER . . . . . . . =     1
     NUMBER OF CONCENTRATED LOADS . =     1

    NODE       DIRECTION      LOAD
   NUMBER                   MAGNITUDE
      4            2       -2.00000e+01

 E L E M E N T   G R O U P   D A T A


 E L E M E N T   D E F I N I T I O N

 ELEMENT TYPE  . . . . . . . . . . . . .( NPAR(1) ) . . =    4
     EQ.1, TRUSS ELEMENTS
     EQ.2, ELEMENTS CURRENTLY
     EQ.3, NOT AVAILABLE
     EQ.4, Q8
     EQ.7, H8

 NUMBER OF ELEMENTS. . . . . . . . . . .( NPAR(2) ) . . =    1

 M A T E R I A L   D E F I N I T I O N

 NUMBER OF DIFFERENT SETS OF MATERIAL    1

  SET       YOUNG'S        POISSON'S        THICK        PLANE-
 NUMBER     MODULUS          RATIO          -NESS        STRAIN
               E              nu              t           FLAG
    1     3.00000e+07     3.00000e-01     1.00000e+00       0


 E L E M E N T   I N F O R M A T I O N
 ELEMENT     NODE       NODE     	NODE      NODE      NODE       NODE        NODE        NODE        MATERIAL
 NUMBER-N      I          J         K         L         M          N           O           P          SET NUMBER
    1          1          2          3          4          5          6          7          8           1

	TOTAL SYSTEM DATA

     NUMBER OF EQUATIONS . . . . . . . . . . . . . .(NEQ) = 10
     NUMBER OF MATRIX ELEMENTS . . . . . . . . . . .(NWK) = 55
     MAXIMUM HALF BANDWIDTH  . . . . . . . . . . . .(MK ) = 10
     MEAN HALF BANDWIDTH . . . . . . . . . . . . . .(MM ) = 5


 D I S P L A C E M E N T S

  NODE            X-DISPLACEMENT    Y-DISPLACEMENT    Z-DISPLACEMENT    X-ROTATION    Y-ROTATION    Z-ROTATION
    1               0.00000e+00       0.00000e+00       0.00000e+00         N/A         N/A            N/A
    2               0.00000e+00       0.00000e+00       0.00000e+00         N/A         N/A            N/A
    3              -3.72303e-06      -3.72981e-05       0.00000e+00         N/A         N/A            N/A
    4               1.26483e-05      -3.91478e-05       0.00000e+00         N/A         N/A            N/A
    5               0.00000e+00       0.00000e+00       0.00000e+00         N/A         N/A            N/A
    6              -5.21728e-06      -1.06741e-05       0.00000e+00         N/A         N/A            N/A
    7               3.89659e-06      -3.78413e-05       0.00000e+00         N/A         N/A            N/A
    8               7.32772e-06      -1.01948e-05       0.00000e+00         N/A         N/A            N/A

 S T R E S S  C A L C U L A T I O N S  F O R  E L E M E N T  G R O U P    1

ELEMENT NUMBER	  	x-coord	    	    y-coord           Sigma_xx             sigma_yy               Sigma_xy
GAUSSPOINT NUMBER
       1-1           4.22650e-01           8.11004e-01       1.39408e+02           5.38614e+01          -1.56712e+01
       1-2           1.57735e+00           8.72008e-01       7.37672e+01          -3.81956e+01          -2.09246e+01
       1-3           4.22650e-01           2.94658e-01      -1.39408e+02          -1.72879e+01          -2.90547e+01
       1-4           1.57735e+00           5.22329e-01      -7.37672e+01          -1.35939e+01          -4.51188e+01


 S O L U T I O N   T I M E   L O G   I N   S E C 

     TIME FOR INPUT PHASE = 6.30000e-02
     TIME FOR CALCULATION OF STIFFNESS MATRIX = 2.00000e-03
     TIME FOR FACTORIZATION AND LOAD CASE SOLUTIONS = 4.50000e-02

     T O T A L   S O L U T I O N   T I M E = 1.10000e-01

