TITLE : STAP90 input data for cantilever beam with 2 T6 elements (benchmark)
        (13:19:31 on June 6, 2025, Friday)

C O N T R O L   I N F O R M A T I O N

      NUMBER OF NODAL POINTS . . . . . . . . . . (NUMNP)  =     9
      NUMBER OF ELEMENT GROUPS . . . . . . . . . (NUMEG)  =     1
      NUMBER OF LOAD CASES . . . . . . . . . . . (NLCASE) =     1
      SOLUTION MODE  . . . . . . . . . . . . . . (MODEX)  =     1
         EQ.0, DATA CHECK
         EQ.1, EXECUTION

 N O D A L   P O I N T   D A T A

    NODE       BOUNDARY                         NODAL POINT
   NUMBER  CONDITION  CODES                     COORDINATES
        1    1    1    1       0.00000e+00    2.00000e-01    0.00000e+00
        2    1    1    1       0.00000e+00    0.00000e+00    0.00000e+00
        3    0    0    1       1.00000e+00    0.00000e+00    0.00000e+00
        4    1    1    1       0.00000e+00    1.00000e-01    0.00000e+00
        5    0    0    1       5.00000e-01    0.00000e+00    0.00000e+00
        6    0    0    1       5.00000e-01    1.00000e-01    0.00000e+00
        7    0    0    1       1.00000e+00    2.00000e-01    0.00000e+00
        8    0    0    1       1.00000e+00    1.00000e-01    0.00000e+00
        9    0    0    1       5.00000e-01    2.00000e-01    0.00000e+00

 EQUATION NUMBERS

   NODE NUMBER   DEGREES 	OF 	FREEDOM
        N           X    Y    Z    x    y    z
        1           0    0    0  N/A  N/A  N/A
        2           0    0    0  N/A  N/A  N/A
        3           1    2    0  N/A  N/A  N/A
        4           0    0    0  N/A  N/A  N/A
        5           3    4    0  N/A  N/A  N/A
        6           5    6    0  N/A  N/A  N/A
        7           7    8    0  N/A  N/A  N/A
        8           9   10    0  N/A  N/A  N/A
        9          11   12    0  N/A  N/A  N/A

 L O A D   C A S E   D A T A

     LOAD CASE NUMBER . . . . . . . =     1
     NUMBER OF CONCENTRATED LOADS . =     2

    NODE       DIRECTION      LOAD
   NUMBER                   MAGNITUDE
      3            2       -5.00000e+02
      7            2       -5.00000e+02

 E L E M E N T   G R O U P   D A T A


 E L E M E N T   D E F I N I T I O N

 ELEMENT TYPE  . . . . . . . . . . . . .( NPAR(1) ) . . =   12
     EQ.1, TRUSS ELEMENTS
     EQ.2, ELEMENTS CURRENTLY
     EQ.3, NOT AVAILABLE
     EQ.4, Q8
     EQ.7, H8
     EQ.11, Tet4
     EQ.12, T6

 NUMBER OF ELEMENTS. . . . . . . . . . .( NPAR(2) ) . . =    2

 M A T E R I A L   D E F I N I T I O N

 NUMBER OF DIFFERENT SETS OF MATERIAL    1

  SET       YOUNG'S        POISSON'S        THICK        PLANE-
 NUMBER     MODULUS          RATIO          -NESS        STRAIN
               E              nu              t           FLAG
    1     2.00000e+08     3.00000e-01     1.00000e-01       0


 E L E M E N T   I N F O R M A T I O N
 ELEMENT     NODE       NODE     	NODE      NODE      NODE       NODE        MATERIAL
 NUMBER-N      I          J         K         L         M          N          SET NUMBER
    1          1          2          3          4          5          6           1
    2          1          3          7          6          8          9           1

	TOTAL SYSTEM DATA

     NUMBER OF EQUATIONS . . . . . . . . . . . . . .(NEQ) = 12
     NUMBER OF MATRIX ELEMENTS . . . . . . . . . . .(NWK) = 78
     MAXIMUM HALF BANDWIDTH  . . . . . . . . . . . .(MK ) = 12
     MEAN HALF BANDWIDTH . . . . . . . . . . . . . .(MM ) = 6


 D I S P L A C E M E N T S

  NODE            X-DISPLACEMENT    Y-DISPLACEMENT    Z-DISPLACEMENT    X-ROTATION    Y-ROTATION    Z-ROTATION
    1               0.00000e+00       0.00000e+00       0.00000e+00         N/A          N/A            N/A
    2               0.00000e+00       0.00000e+00       0.00000e+00         N/A          N/A            N/A
    3              -1.82675e-03      -1.00090e-02       0.00000e+00         N/A          N/A            N/A
    4               0.00000e+00       0.00000e+00       0.00000e+00         N/A          N/A            N/A
    5              -9.83591e-04      -2.71259e-03       0.00000e+00         N/A          N/A            N/A
    6               5.08694e-06      -2.68996e-03       0.00000e+00         N/A          N/A            N/A
    7               1.83554e-03      -9.98981e-03       0.00000e+00         N/A          N/A            N/A
    8               5.28944e-06      -9.97121e-03       0.00000e+00         N/A          N/A            N/A
    9               9.97521e-04      -2.72239e-03       0.00000e+00         N/A          N/A            N/A

 S T R E S S  C A L C U L A T I O N S  F O R  E L E M E N T  G R O U P    1

ELEMENT NUMBER          x-coord              y-coord           Sigma_xx             Sigma_yy             Sigma_xy
GAUSSPOINT NUMBER
       1-1           6.66667e-01           3.33333e-02      -2.16157e+05          -4.51217e+03           1.01926e+04
       1-2           1.66667e-01           1.33333e-01       1.41782e+05           5.76183e+04          -4.16383e+04
       1-3           1.66667e-01           3.33333e-02      -2.92801e+05          -7.27567e+04          -4.51191e+04
       2-1           8.33333e-01           1.66667e-01       2.12414e+05          -1.50342e+03          -4.24829e+04
       2-2           3.33333e-01           1.66667e-01       2.73411e+05          -1.08481e+04           1.22790e+04
       2-3           8.33333e-01           6.66667e-02      -1.18650e+05           1.20385e+04          -4.32313e+04


 S O L U T I O N   T I M E   L O G   I N   S E C 

     TIME FOR INPUT PHASE = 1.36000e-01
     TIME FOR CALCULATION OF STIFFNESS MATRIX = 1.50000e-02
     TIME FOR FACTORIZATION AND LOAD CASE SOLUTIONS = 8.20000e-02

     T O T A L   S O L U T I O N   T I M E = 2.33000e-01

