TITLE :  STAP90 input data for example 4.1 with 1 Q4 element, together with benchmark-8
        (9:54:57 on May 24, 2025, Saturday)

C O N T R O L   I N F O R M A T I O N

      NUMBER OF NODAL POINTS . . . . . . . . . . (NUMNP)  =     8
      NUMBER OF ELEMENT GROUPS . . . . . . . . . (NUMEG)  =     1
      NUMBER OF LOAD CASES . . . . . . . . . . . (NLCASE) =     1
      SOLUTION MODE  . . . . . . . . . . . . . . (MODEX)  =     1
         EQ.0, DATA CHECK
         EQ.1, EXECUTION

 N O D A L   P O I N T   D A T A

    NODE       BOUNDARY                         NODAL POINT
   NUMBER  CONDITION  CODES                     COORDINATES
        1    1    1    1       0.00000e+00    1.00000e+00    0.00000e+00
        2    1    1    1       0.00000e+00    0.00000e+00    0.00000e+00
        3    0    0    1       2.00000e+00    5.00000e-01    0.00000e+00
        4    0    0    1       2.00000e+00    1.00000e+00    0.00000e+00
        5    1    1    1       0.00000e+00    5.00000e-01    0.00000e+00
        6    0    0    1       1.00000e+00    2.50000e-01    0.00000e+00
        7    0    0    1       2.00000e+00    7.50000e-01    0.00000e+00
        8    0    0    1       1.00000e+00    1.00000e+00    0.00000e+00

 EQUATION NUMBERS

   NODE NUMBER   DEGREES OF FREEDOM
        N           X    Y    Z
        1           0    0    0    0    0    0
        2           0    0    0    0    0    0
        3           1    2    0    0    0    0
        4           3    4    0    0    0    0
        5           0    0    0    0    0    0
        6           5    6    0    0    0    0
        7           7    8    0    0    0    0
        8           9   10    0    0    0    0

 L O A D   C A S E   D A T A

     LOAD CASE NUMBER . . . . . . . =     1
     NUMBER OF SURFACE  FORCES OF Q8 ELEMENTS . =     1

 ELEMENT       1-NODE       2-NODE       3-NODE     	TX1-LOAD      	TY1-LOAD      	TX2-LOAD      	TY2-LOAD      	TX3-LOAD      	TY3-LOAD
 NUMBER	       NUMBER       NUMBER       NUMBER         MAGNITUDE	  MAGNITUDE     MAGNITUDE     MAGNITUDE	    MAGNITUDE	   MAGNITUDE
   1            1            4            8       0.00000e+00      -2.00000e+01       0.00000e+00      -2.00000e+01       0.00000e+00      -2.00000e+01

 E L E M E N T   G R O U P   D A T A


 E L E M E N T   D E F I N I T I O N

 ELEMENT TYPE  . . . . . . . . . . . . .( NPAR(1) ) . . =    4
     EQ.1, TRUSS ELEMENTS
     EQ.2, ELEMENTS CURRENTLY
     EQ.3, NOT AVAILABLE

 NUMBER OF ELEMENTS. . . . . . . . . . .( NPAR(2) ) . . =    1

 M A T E R I A L   D E F I N I T I O N

 NUMBER OF DIFFERENT SETS OF MATERIAL
 AND CROSS-SECTIONAL  CONSTANTS  . . . .( NPAR(3) ) . . =    1

  SET       YOUNG'S        POISSON'S        THICK        PLANE-
 NUMBER     MODULUS          RATIO          -NESS        STRAIN
               E              nu              t           FLAG
    1     3.00000e+07     3.00000e-01     1.00000e+00       0


 E L E M E N T   I N F O R M A T I O N
 ELEMENT     NODE       NODE     	NODE     NODE       MATERIAL
 NUMBER-N      I          J        K        L       SET NUMBER
    1          1          2          3          4          5          6          7          8           1

   Ele =        Location Matrix
        1    0    0    0    0    1    2    3    4    0    0    5    6    7    8    9   10

*** _Debug_ *** Column Heights
       0       1       2       3       4       5       6       7       8       9

*** _Debug_ *** Address of Diagonal Element
       1       2       4       7      11      16      22      29      37      46      56

	TOTAL SYSTEM DATA

     NUMBER OF EQUATIONS . . . . . . . . . . . . . .(NEQ) = 10
     NUMBER OF MATRIX ELEMENTS . . . . . . . . . . .(NWK) = 55
     MAXIMUM HALF BANDWIDTH  . . . . . . . . . . . .(MK ) = 10
     MEAN HALF BANDWIDTH . . . . . . . . . . . . . .(MM ) = 5


*** _Debug_ *** Banded stiffness matrix
   3.46224e+07   6.40409e+07  -1.69414e+07   2.52888e+07  -3.02198e+06   1.59129e+07
   6.07742e+07   7.32601e+06   3.67234e+07  -2.74725e+06   3.70245e+07  -3.11355e+06
  -9.80558e+06   1.28205e+06  -7.10059e+06   4.85630e+07  -3.29670e+06  -1.53001e+07
  -3.11355e+06   9.38292e+06   2.38095e+06   7.20485e+07  -5.86081e+06   5.91716e+06
   3.66300e+05  -3.25021e+07   1.50183e+07  -3.77148e+07   1.91371e+08  -1.53846e+07
   2.07101e+06  -5.86081e+06  -9.44527e+07   1.46520e+06  -9.62771e+07   1.39194e+07
   3.70245e+07   5.86081e+06   1.40885e+06   3.29670e+06  -4.05748e+06  -3.47985e+06
  -4.84644e+06   5.31136e+06  -1.30459e+07   4.85630e+07  -3.29670e+06   4.93097e+05
   5.86081e+06  -3.70245e+07   3.29670e+06   1.01719e+07  -4.57875e+06  -1.64342e+07
   5.31136e+06

*** _Debug_ *** Full stiffness matrix
   3.46224e+07  -1.69414e+07   1.59129e+07  -2.74725e+06  -7.10059e+06   2.38095e+06  -3.77148e+07   1.39194e+07  -1.30459e+07   5.31136e+06
  -1.69414e+07   6.40409e+07  -3.02198e+06   3.67234e+07   1.28205e+06   9.38292e+06   1.50183e+07  -9.62771e+07   5.31136e+06  -1.64342e+07
   1.59129e+07  -3.02198e+06   2.52888e+07   7.32601e+06  -9.80558e+06  -3.11355e+06  -3.25021e+07   1.46520e+06  -4.84644e+06  -4.57875e+06
  -2.74725e+06   3.67234e+07   7.32601e+06   6.07742e+07  -3.11355e+06  -1.53001e+07   3.66300e+05  -9.44527e+07  -3.47985e+06   1.01719e+07
  -7.10059e+06   1.28205e+06  -9.80558e+06  -3.11355e+06   3.70245e+07  -3.29670e+06   5.91716e+06  -5.86081e+06  -4.05748e+06   3.29670e+06
   2.38095e+06   9.38292e+06  -3.11355e+06  -1.53001e+07  -3.29670e+06   4.85630e+07  -5.86081e+06   2.07101e+06   3.29670e+06  -3.70245e+07
  -3.77148e+07   1.50183e+07  -3.25021e+07   3.66300e+05   5.91716e+06  -5.86081e+06   7.20485e+07  -1.53846e+07   1.40885e+06   5.86081e+06
   1.39194e+07  -9.62771e+07   1.46520e+06  -9.44527e+07  -5.86081e+06   2.07101e+06  -1.53846e+07   1.91371e+08   5.86081e+06   4.93097e+05
  -1.30459e+07   5.31136e+06  -4.84644e+06  -3.47985e+06  -4.05748e+06   3.29670e+06   1.40885e+06   5.86081e+06   3.70245e+07  -3.29670e+06
   5.31136e+06  -1.64342e+07  -4.57875e+06   1.01719e+07   3.29670e+06  -3.70245e+07   5.86081e+06   4.93097e+05  -3.29670e+06   4.85630e+07

*** _Debug_ *** Banded stiffness matrix
   3.46224e+07   5.57512e+07  -4.89318e-01   1.75678e+07   8.54603e-02   4.59613e-01
   3.63420e+07   3.16782e-01   6.34589e-01  -7.93489e-02   3.31814e+07  -7.50246e-03
  -3.61723e-01  -3.93247e-02  -2.05086e-01   3.31235e+07  -1.32400e-01  -5.55452e-01
  -2.90833e-01   1.89197e-01   6.87691e-02   1.51257e+07  -1.67252e-01  -2.20036e-01
   1.17389e-01  -8.46672e-01  -6.16355e-02  -1.08932e+00   1.93976e+06  -5.17804e-02
  -8.25367e-02  -1.75510e-01  -1.03003e+00   1.54456e-01  -1.60474e+00   4.02035e-01
   1.46535e+07   1.65327e+00  -8.23625e-01   4.73261e-02  -1.91611e-01  -1.16334e-01
   7.06566e-02  -1.92329e-02  -3.76806e-01   4.32892e+06   4.90328e-01  -1.43517e+00
  -2.05244e-02  -7.37598e-01   5.69465e-02   5.83959e-01  -3.32287e-01  -2.48161e-01
   1.53408e-01

*** _Debug_ *** Full stiffness matrix
   3.46224e+07  -4.89318e-01   4.59613e-01  -7.93489e-02  -2.05086e-01   6.87691e-02  -1.08932e+00   4.02035e-01  -3.76806e-01   1.53408e-01
  -4.89318e-01   5.57512e+07   8.54603e-02   6.34589e-01  -3.93247e-02   1.89197e-01  -6.16355e-02  -1.60474e+00  -1.92329e-02  -2.48161e-01
   4.59613e-01   8.54603e-02   1.75678e+07   3.16782e-01  -3.61723e-01  -2.90833e-01  -8.46672e-01   1.54456e-01   7.06566e-02  -3.32287e-01
  -7.93489e-02   6.34589e-01   3.16782e-01   3.63420e+07  -7.50246e-03  -5.55452e-01   1.17389e-01  -1.03003e+00  -1.16334e-01   5.83959e-01
  -2.05086e-01  -3.93247e-02  -3.61723e-01  -7.50246e-03   3.31814e+07  -1.32400e-01  -2.20036e-01  -1.75510e-01  -1.91611e-01   5.69465e-02
   6.87691e-02   1.89197e-01  -2.90833e-01  -5.55452e-01  -1.32400e-01   3.31235e+07  -1.67252e-01  -8.25367e-02   4.73261e-02  -7.37598e-01
  -1.08932e+00  -6.16355e-02  -8.46672e-01   1.17389e-01  -2.20036e-01  -1.67252e-01   1.51257e+07  -5.17804e-02  -8.23625e-01  -2.05244e-02
   4.02035e-01  -1.60474e+00   1.54456e-01  -1.03003e+00  -1.75510e-01  -8.25367e-02  -5.17804e-02   1.93976e+06   1.65327e+00  -1.43517e+00
  -3.76806e-01  -1.92329e-02   7.06566e-02  -1.16334e-01  -1.91611e-01   4.73261e-02  -8.23625e-01   1.65327e+00   1.46535e+07   4.90328e-01
   1.53408e-01  -2.48161e-01  -3.32287e-01   5.83959e-01   5.69465e-02  -7.37598e-01  -2.05244e-02  -1.43517e+00   4.90328e-01   4.32892e+06

*** _Debug_ *** Displacement vector
   0.00000e+00   0.00000e+00   0.00000e+00  -6.66667e+00   0.00000e+00
   0.00000e+00   0.00000e+00   0.00000e+00   0.00000e+00  -2.66667e+01

*** _Debug_ *** Displacement vector
  -1.36510e-06  -2.66801e-05   7.49918e-06  -2.66424e-05  -3.61095e-06
  -9.11138e-06   2.94382e-06  -2.64483e-05   5.46305e-06  -9.55840e-06

 D I S P L A C E M E N T S

  NODE            X-DISPLACEMENT    Y-DISPLACEMENT    Z-DISPLACEMENT
    1               0.00000e+00       0.00000e+00       0.00000e+00       0.00000e+00       0.00000e+00       0.00000e+00
    2               0.00000e+00       0.00000e+00       0.00000e+00       0.00000e+00       0.00000e+00       0.00000e+00
    3              -1.36510e-06      -2.66801e-05       0.00000e+00       0.00000e+00       0.00000e+00       0.00000e+00
    4               7.49918e-06      -2.66424e-05       0.00000e+00       0.00000e+00       0.00000e+00       0.00000e+00
    5               0.00000e+00       0.00000e+00       0.00000e+00       0.00000e+00       0.00000e+00       0.00000e+00
    6              -3.61095e-06      -9.11138e-06       0.00000e+00       0.00000e+00       0.00000e+00       0.00000e+00
    7               2.94382e-06      -2.64483e-05       0.00000e+00       0.00000e+00       0.00000e+00       0.00000e+00
    8               5.46305e-06      -9.55840e-06       0.00000e+00       0.00000e+00       0.00000e+00       0.00000e+00

 S T R E S S  C A L C U L A T I O N S  F O R  E L E M E N T  G R O U P    1

ELEMENT NUMBER	  	x-coord	    	    y-coord           Sigma_xx             sigma_yy               Sigma_xy
GAUSSPOINT NUMBER
       1-1           4.22650e-01           8.11004e-01       1.04978e+02           1.78556e+01          -3.63414e+01
       1-2           1.57735e+00           8.72008e-01       2.29270e+01          -2.62483e+01          -7.28865e+00
       1-3           4.22650e-01           2.94658e-01      -1.04978e+02          -3.81575e+01          -3.42069e+01
       1-4           1.57735e+00           5.22329e-01      -2.29270e+01          -1.57284e+00          -2.06246e+01


 S O L U T I O N   T I M E   L O G   I N   S E C 

     TIME FOR INPUT PHASE = 3.70000e-02
     TIME FOR CALCULATION OF STIFFNESS MATRIX = 4.00000e-02
     TIME FOR FACTORIZATION AND LOAD CASE SOLUTIONS = 6.50000e-02

     T O T A L   S O L U T I O N   T I M E = 1.42000e-01

