TITLE :  STAP90 input data for example 4.1 with 1 Q4 element, non-homogeneous essential boundary conditions
        (12:50:43 on May 29, 2025, Thursday)

C O N T R O L   I N F O R M A T I O N

      NUMBER OF NODAL POINTS . . . . . . . . . . (NUMNP)  =     4
      NUMBER OF ELEMENT GROUPS . . . . . . . . . (NUMEG)  =     1
      NUMBER OF LOAD CASES . . . . . . . . . . . (NLCASE) =     1
      SOLUTION MODE  . . . . . . . . . . . . . . (MODEX)  =     1
         EQ.0, DATA CHECK
         EQ.1, EXECUTION

 N O D A L   P O I N T   D A T A

    NODE       BOUNDARY                         NODAL POINT
   NUMBER  CONDITION  CODES                     COORDINATES
        1    2    2    1       0.00000e+00    1.00000e+00    0.00000e+00
        2    2    2    1       0.00000e+00    0.00000e+00    0.00000e+00
        3    0    0    1       2.00000e+00    5.00000e-01    0.00000e+00
        4    0    0    1       2.00000e+00    1.00000e+00    0.00000e+00

 EQUATION NUMBERS

   NODE NUMBER   DEGREES 	OF 	FREEDOM
        N           X    Y    Z    x    y    z
        1           0    0    0  N/A  N/A  N/A
        2           0    0    0  N/A  N/A  N/A
        3           1    2    0  N/A  N/A  N/A
        4           3    4    0  N/A  N/A  N/A

 L O A D   C A S E   D A T A

     LOAD CASE NUMBER . . . . . . . =     1
     NUMBER OF CONCENTRATED LOADS . =     2

    NODE       DIRECTION      LOAD
   NUMBER                   MAGNITUDE
      1            2       -2.00000e+01
      4            2       -2.00000e+01

 E L E M E N T   G R O U P   D A T A


 E L E M E N T   D E F I N I T I O N

 ELEMENT TYPE  . . . . . . . . . . . . .( NPAR(1) ) . . =    3
     EQ.1, TRUSS ELEMENTS
     EQ.2, ELEMENTS CURRENTLY
     EQ.3, NOT AVAILABLE
     EQ.4, Q8
     EQ.7, H8

 NUMBER OF ELEMENTS. . . . . . . . . . .( NPAR(2) ) . . =    1

 M A T E R I A L   D E F I N I T I O N

 NUMBER OF DIFFERENT SETS OF MATERIAL
 AND CROSS-SECTIONAL  CONSTANTS  . . . .( NPAR(3) ) . . =    1

  SET       YOUNG'S        POISSON'S        THICK        PLANE-
 NUMBER     MODULUS          RATIO          -NESS        STRAIN
               E              nu              t           FLAG
    1     3.00000e+07     3.00000e-01     1.00000e+00       0


 E L E M E N T   I N F O R M A T I O N
 ELEMENT     NODE       NODE     	NODE     NODE       MATERIAL
 NUMBER-N      I          J        K        L       SET NUMBER
    1          1          2          3        4           1

   Ele =        Location Matrix
        1    0    0    0    0    1    2    3    4

*** _Debug_ *** Column Heights
       0       1       2       3

*** _Debug_ *** Address of Diagonal Element
       1       2       4       7      11

	TOTAL SYSTEM DATA

     NUMBER OF EQUATIONS . . . . . . . . . . . . . .(NEQ) = 4
     NUMBER OF MATRIX ELEMENTS . . . . . . . . . . .(NWK) = 10
     MAXIMUM HALF BANDWIDTH  . . . . . . . . . . . .(MK ) = 4
     MEAN HALF BANDWIDTH . . . . . . . . . . . . . .(MM ) = 2


*** _Debug_ *** Banded stiffness matrix
   2.00338e+07   3.81657e+07  -8.24176e+06   1.59129e+07   3.29670e+06  -1.17921e+07
   3.67234e+07   2.47253e+06  -3.52811e+07   2.47253e+06

*** _Debug_ *** Full stiffness matrix
   2.00338e+07  -8.24176e+06  -1.17921e+07   2.47253e+06
  -8.24176e+06   3.81657e+07   3.29670e+06  -3.52811e+07
  -1.17921e+07   3.29670e+06   1.59129e+07   2.47253e+06
   2.47253e+06  -3.52811e+07   2.47253e+06   3.67234e+07

*** _Debug_ *** Banded stiffness matrix
   2.00338e+07   3.47751e+07  -4.11392e-01   8.90256e+06  -4.47003e-02  -5.88608e-01
   2.01302e+06   2.69166e-01  -9.85300e-01   1.23418e-01

*** _Debug_ *** Full stiffness matrix
   2.00338e+07  -4.11392e-01  -5.88608e-01   1.23418e-01
  -4.11392e-01   3.47751e+07  -4.47003e-02  -9.85300e-01
  -5.88608e-01  -4.47003e-02   8.90256e+06   2.69166e-01
   1.23418e-01  -9.85300e-01   2.69166e-01   2.01302e+06

*** _Debug_ *** Displacement vector
   9.70118e+01  -7.20932e+01  -1.08855e+01  -2.71450e+00

*** _Debug_ *** Displacement vector
   4.07267e-06  -2.89606e-05   1.28453e-05  -2.90361e-05

 D I S P L A C E M E N T S

  NODE            X-DISPLACEMENT    Y-DISPLACEMENT    Z-DISPLACEMENT    X-ROTATION    Y-ROTATION    Z-ROTATION
    1               1.00000e-05       1.00000e-07       0.00000e+00         N/A          N/A            N/A
    2               3.00000e-07       6.00000e-07       0.00000e+00         N/A          N/A            N/A
    3               4.07267e-06      -2.89606e-05       0.00000e+00         N/A          N/A            N/A
    4               1.28453e-05      -2.90361e-05       0.00000e+00         N/A          N/A            N/A

 S T R E S S  C A L C U L A T I O N S  F O R  E L E M E N T  G R O U P    1

ELEMENT NUMBER	  	x-coord	    	    y-coord           Sigma_xx             sigma_yy               Sigma_xy
GAUSSPOINT NUMBER
       1-1           4.22650e-01           8.11004e-01       1.77391e+02           5.26816e+01          -1.43495e+02
       1-2           1.57735e+00           8.72008e-01       1.60308e+02           4.51409e+01          -3.55547e+01
       1-3           4.22650e-01           2.94658e-01       8.40398e+01           2.46763e+01          -1.43214e+02
       1-4           1.57735e+00           5.22329e-01       2.24640e+01           3.78761e+00          -3.51392e+01


 S O L U T I O N   T I M E   L O G   I N   S E C 

     TIME FOR INPUT PHASE = 6.20000e-02
     TIME FOR CALCULATION OF STIFFNESS MATRIX = 1.90000e-02
     TIME FOR FACTORIZATION AND LOAD CASE SOLUTIONS = 6.10000e-02

     T O T A L   S O L U T I O N   T I M E = 1.42000e-01

