TITLE :  STAP90 input data 2 Tet4 elements
        (19:18:46 on June 5, 2025, Thursday)

C O N T R O L   I N F O R M A T I O N

      NUMBER OF NODAL POINTS . . . . . . . . . . (NUMNP)  =     5
      NUMBER OF ELEMENT GROUPS . . . . . . . . . (NUMEG)  =     1
      NUMBER OF LOAD CASES . . . . . . . . . . . (NLCASE) =     1
      SOLUTION MODE  . . . . . . . . . . . . . . (MODEX)  =     1
         EQ.0, DATA CHECK
         EQ.1, EXECUTION

 N O D A L   P O I N T   D A T A

    NODE       BOUNDARY                         NODAL POINT
   NUMBER  CONDITION  CODES                     COORDINATES
        1    1    1    1       0.00000e+00    0.00000e+00    0.00000e+00
        2    0    1    1       1.00000e+00    0.00000e+00    0.00000e+00
        3    0    0    1       0.00000e+00    1.00000e+00    0.00000e+00
        4    0    0    0       0.00000e+00    0.00000e+00    1.00000e+00
        5    0    0    0       1.00000e+00    1.00000e+00    1.00000e+00

 EQUATION NUMBERS

   NODE NUMBER   DEGREES 	OF 	FREEDOM
        N           X    Y    Z    x    y    z
        1           0    0    0  N/A  N/A  N/A
        2           1    0    0  N/A  N/A  N/A
        3           2    3    0  N/A  N/A  N/A
        4           4    5    6  N/A  N/A  N/A
        5           7    8    9  N/A  N/A  N/A

 L O A D   C A S E   D A T A

     LOAD CASE NUMBER . . . . . . . =     1
     NUMBER OF CONCENTRATED LOADS . =     3

    NODE       DIRECTION      LOAD
   NUMBER                   MAGNITUDE
      5            1       -1.00000e+01
      5            2       -1.00000e+01
      5            3       -1.00000e+01

 E L E M E N T   G R O U P   D A T A


 E L E M E N T   D E F I N I T I O N

 ELEMENT TYPE  . . . . . . . . . . . . .( NPAR(1) ) . . =   11
     EQ.1, TRUSS ELEMENTS
     EQ.2, ELEMENTS CURRENTLY
     EQ.3, NOT AVAILABLE
     EQ.4, Q8
     EQ.7, H8
     EQ.11, Tet4

 NUMBER OF ELEMENTS. . . . . . . . . . .( NPAR(2) ) . . =    2

 M A T E R I A L   D E F I N I T I O N

 NUMBER OF DIFFERENT SETS OF MATERIAL    1

  SET       YOUNG'S        POISSON'S       
 NUMBER     MODULUS          RATIO          
               E              nu            
    1     3.00000e+07     3.00000e-01


 E L E M E N T   I N F O R M A T I O N
 ELEMENT     NODE       NODE     	NODE      NODE        MATERIAL
 NUMBER-N      I          J         K         L          SET NUMBER
    1          1          2          3          4           1
    2          2          3          4          5           1

   Ele =        Location Matrix
        1    0    0    0    1    0    0    2    3    0    4    5    6
        2    1    0    0    2    3    0    4    5    6    7    8    9

*** _Debug_ *** Column Heights
       0       1       2       3       4       5       6       7       8

*** _Debug_ *** Address of Diagonal Element
       1       2       4       7      11      16      22      29      37      46

	TOTAL SYSTEM DATA

     NUMBER OF EQUATIONS . . . . . . . . . . . . . .(NEQ) = 9
     NUMBER OF MATRIX ELEMENTS . . . . . . . . . . .(NWK) = 45
     MAXIMUM HALF BANDWIDTH  . . . . . . . . . . . .(MK ) = 9
     MEAN HALF BANDWIDTH . . . . . . . . . . . . . .(MM ) = 5


*** _Debug_ *** Banded stiffness matrix
   1.20192e+07   7.21154e+06  -3.36538e+06   1.20192e+07  -2.40385e+06   5.28846e+06
   7.21154e+06  -4.80769e+05   1.44231e+06  -3.36538e+06   7.21154e+06   2.40385e+06
  -3.36538e+06   4.80769e+05  -4.80769e+05   1.20192e+07  -2.40385e+06  -2.40385e+06
   5.28846e+06  -4.80769e+05   5.28846e+06   5.28846e+06   4.80769e+05  -2.40385e+06
  -3.36538e+06   4.80769e+05  -3.36538e+06   1.44231e+06   5.28846e+06   2.40385e+06
   4.80769e+05  -3.36538e+06  -2.40385e+06   1.44231e+06  -4.80769e+05   4.80769e+05
   5.28846e+06   2.40385e+06   2.40385e+06   1.44231e+06  -4.80769e+05  -4.80769e+05
   4.80769e+05  -2.40385e+06   4.80769e+05

*** _Debug_ *** Full stiffness matrix
   1.20192e+07  -3.36538e+06   5.28846e+06  -3.36538e+06  -4.80769e+05   5.28846e+06   1.44231e+06   4.80769e+05   4.80769e+05
  -3.36538e+06   7.21154e+06  -2.40385e+06   1.44231e+06   4.80769e+05  -4.80769e+05  -3.36538e+06  -4.80769e+05  -2.40385e+06
   5.28846e+06  -2.40385e+06   1.20192e+07  -4.80769e+05  -3.36538e+06   5.28846e+06   4.80769e+05   1.44231e+06   4.80769e+05
  -3.36538e+06   1.44231e+06  -4.80769e+05   7.21154e+06   2.40385e+06  -2.40385e+06  -3.36538e+06  -2.40385e+06  -4.80769e+05
  -4.80769e+05   4.80769e+05  -3.36538e+06   2.40385e+06   7.21154e+06  -2.40385e+06  -2.40385e+06  -3.36538e+06  -4.80769e+05
   5.28846e+06  -4.80769e+05   5.28846e+06  -2.40385e+06  -2.40385e+06   1.20192e+07   4.80769e+05   4.80769e+05   1.44231e+06
   1.44231e+06  -3.36538e+06   4.80769e+05  -3.36538e+06  -2.40385e+06   4.80769e+05   5.28846e+06   2.40385e+06   2.40385e+06
   4.80769e+05  -4.80769e+05   1.44231e+06  -2.40385e+06  -3.36538e+06   4.80769e+05   2.40385e+06   5.28846e+06   2.40385e+06
   4.80769e+05  -2.40385e+06   4.80769e+05  -4.80769e+05  -4.80769e+05   1.44231e+06   2.40385e+06   2.40385e+06   5.28846e+06

*** _Debug_ *** Banded stiffness matrix
   1.20192e+07   6.26923e+06  -2.80000e-01   9.55639e+06  -1.47239e-01   4.40000e-01
   6.10874e+06   1.12346e-01   7.97546e-02  -2.80000e-01   5.06742e+06   4.24019e-01
  -3.24691e-01   5.52147e-02  -4.00000e-02   8.13500e+06  -1.31195e-01  -2.21337e-01
   3.25309e-01   1.59509e-01   4.40000e-01   2.20861e+06  -2.97063e-02  -2.46018e-01
  -4.35290e-01  -6.17284e-02  -4.72393e-01   1.20000e-01   3.11955e+06   3.26214e-01
  -1.03135e-01  -3.82301e-01  -3.88651e-01   1.23457e-01  -5.52147e-02   4.00000e-02
   2.38757e+06   5.99545e-01   5.32366e-01   1.89404e-01  -5.73009e-02  -2.58453e-02
  -6.79012e-03  -3.61963e-01   4.00000e-02

*** _Debug_ *** Full stiffness matrix
   1.20192e+07  -2.80000e-01   4.40000e-01  -2.80000e-01  -4.00000e-02   4.40000e-01   1.20000e-01   4.00000e-02   4.00000e-02
  -2.80000e-01   6.26923e+06  -1.47239e-01   7.97546e-02   5.52147e-02   1.59509e-01  -4.72393e-01  -5.52147e-02  -3.61963e-01
   4.40000e-01  -1.47239e-01   9.55639e+06   1.12346e-01  -3.24691e-01   3.25309e-01  -6.17284e-02   1.23457e-01  -6.79012e-03
  -2.80000e-01   7.97546e-02   1.12346e-01   6.10874e+06   4.24019e-01  -2.21337e-01  -4.35290e-01  -3.88651e-01  -2.58453e-02
  -4.00000e-02   5.52147e-02  -3.24691e-01   4.24019e-01   5.06742e+06  -1.31195e-01  -2.46018e-01  -3.82301e-01  -5.73009e-02
   4.40000e-01   1.59509e-01   3.25309e-01  -2.21337e-01  -1.31195e-01   8.13500e+06  -2.97063e-02  -1.03135e-01   1.89404e-01
   1.20000e-01  -4.72393e-01  -6.17284e-02  -4.35290e-01  -2.46018e-01  -2.97063e-02   2.20861e+06   3.26214e-01   5.32366e-01
   4.00000e-02  -5.52147e-02   1.23457e-01  -3.88651e-01  -3.82301e-01  -1.03135e-01   3.26214e-01   3.11955e+06   5.99545e-01
   4.00000e-02  -3.61963e-01  -6.79012e-03  -2.58453e-02  -5.73009e-02   1.89404e-01   5.32366e-01   5.99545e-01   2.38757e+06

*** _Debug_ *** Displacement vector
   0.00000e+00   0.00000e+00   0.00000e+00   0.00000e+00   0.00000e+00
   0.00000e+00  -1.00000e+01  -1.00000e+01  -1.00000e+01

*** _Debug_ *** Displacement vector
  -2.66667e-07  -1.73333e-06  -2.66667e-07  -1.73333e-06  -1.73333e-06
  -2.66667e-07  -3.73333e-06  -2.00000e-06  -2.66667e-07

 D I S P L A C E M E N T S

  NODE            X-DISPLACEMENT    Y-DISPLACEMENT    Z-DISPLACEMENT    X-ROTATION    Y-ROTATION    Z-ROTATION
    1               0.00000e+00       0.00000e+00       0.00000e+00         N/A          N/A            N/A
    2              -2.66667e-07       0.00000e+00       0.00000e+00         N/A          N/A            N/A
    3              -1.73333e-06      -2.66667e-07       0.00000e+00         N/A          N/A            N/A
    4              -1.73333e-06      -1.73333e-06      -2.66667e-07         N/A          N/A            N/A
    5              -3.73333e-06      -2.00000e-06      -2.66667e-07         N/A          N/A            N/A

 S T R E S S  C A L C U L A T I O N S  F O R  E L E M E N T  G R O U P    1

ELEMENT NUMBER   Sigma_xx           Sigma_yy           Sigma_zz           Sigma_xy           Sigma_xz           Sigma_yz
  NUMBER
    1          -2.00000e+01      -2.00000e+01        -2.00000e+01      -2.00000e+01      -2.00000e+01      -2.00000e+01
    2          -2.00000e+01      -2.00000e+01        -2.00000e+01      -2.00000e+01      -2.00000e+01      -2.00000e+01


 S O L U T I O N   T I M E   L O G   I N   S E C 

     TIME FOR INPUT PHASE = 9.30000e-02
     TIME FOR CALCULATION OF STIFFNESS MATRIX = 1.85000e-01
     TIME FOR FACTORIZATION AND LOAD CASE SOLUTIONS = 2.22000e-01

     T O T A L   S O L U T I O N   T I M E = 5.00000e-01

