TITLE :  STAP90 input data for example 4.1 with 2 CST elements, together with benchmark-4
        (23:26:44 on May 11, 2025, Sunday)

C O N T R O L   I N F O R M A T I O N

      NUMBER OF NODAL POINTS . . . . . . . . . . (NUMNP)  =     4
      NUMBER OF ELEMENT GROUPS . . . . . . . . . (NUMEG)  =     1
      NUMBER OF LOAD CASES . . . . . . . . . . . (NLCASE) =     1
      SOLUTION MODE  . . . . . . . . . . . . . . (MODEX)  =     1
         EQ.0, DATA CHECK
         EQ.1, EXECUTION

 N O D A L   P O I N T   D A T A

    NODE       BOUNDARY                         NODAL POINT
   NUMBER  CONDITION  CODES                     COORDINATES
        1    1    1    1       0.00000e+00    0.00000e+00    0.00000e+00
        2    1    1    1       0.00000e+00    1.00000e+00    0.00000e+00
        3    0    0    1       2.00000e+00    5.00000e-01    0.00000e+00
        4    0    0    1       2.00000e+00    1.00000e+00    0.00000e+00

 EQUATION NUMBERS

   NODE NUMBER   DEGREES OF FREEDOM
        N           X    Y    Z
        1           0    0
        2           0    0
        3           1    2
        4           3    4

 L O A D   C A S E   D A T A

     LOAD CASE NUMBER . . . . . . . =     1
     NUMBER OF CONCENTRATED LOADS . =     4

    NODE       DIRECTION      LOAD
   NUMBER                   MAGNITUDE
      2            2       -2.00000e+01
      3            1        2.50000e+01
      4            1        5.00000e+00
      4            2       -2.00000e+01

 E L E M E N T   G R O U P   D A T A


 E L E M E N T   D E F I N I T I O N

 ELEMENT TYPE  . . . . . . . . . . . . .( NPAR(1) ) . . =    2
     EQ.1, TRUSS ELEMENTS
     EQ.2, ELEMENTS CURRENTLY
     EQ.3, NOT AVAILABLE

 NUMBER OF ELEMENTS. . . . . . . . . . .( NPAR(2) ) . . =    2

 M A T E R I A L   D E F I N I T I O N

 NUMBER OF DIFFERENT SETS OF MATERIAL
 AND CROSS-SECTIONAL  CONSTANTS  . . . .( NPAR(3) ) . . =    1

  SET       YOUNG'S        POISSON'S        THICK        PLANE-
 NUMBER     MODULUS          RATIO          -NESS        STRAIN
               E              nu              t           FLAG
    1     3.00000e+07     3.00000e-01     1.00000e+00       0


 E L E M E N T   I N F O R M A T I O N
 ELEMENT     NODE       NODE     NODE       MATERIAL
 NUMBER-N      I          J        K       SET NUMBER
    1          1          3        2           1
    2          2          3        4           1

   Ele =        Location Matrix
        1    0    0    1    2    0    0
        2    0    0    1    2    3    4

*** _Debug_ *** Column Heights
       0       1       2       3

*** _Debug_ *** Address of Diagonal Element
       1       2       4       7      11

	TOTAL SYSTEM DATA

     NUMBER OF EQUATIONS . . . . . . . . . . . . . .(NEQ) = 4
     NUMBER OF MATRIX ELEMENTS . . . . . . . . . . .(NWK) = 10
     MAXIMUM HALF BANDWIDTH  . . . . . . . . . . . .(MK ) = 4
     MEAN HALF BANDWIDTH . . . . . . . . . . . . . .(MM ) = 2


*** _Debug_ *** Banded stiffness matrix
   3.13187e+07   6.88187e+07   0.00000e+00   2.71978e+07  -4.94505e+06  -2.30769e+07
   6.73764e+07   1.07143e+07  -6.59341e+07  -5.76923e+06

*** _Debug_ *** Full stiffness matrix
   3.13187e+07   0.00000e+00  -2.30769e+07  -5.76923e+06
   0.00000e+00   6.88187e+07  -4.94505e+06  -6.59341e+07
  -2.30769e+07  -4.94505e+06   2.71978e+07   1.07143e+07
  -5.76923e+06  -6.59341e+07   1.07143e+07   6.73764e+07

*** _Debug_ *** Banded stiffness matrix
   3.13187e+07   6.88187e+07   0.00000e+00   9.83842e+06  -7.18563e-02  -7.36842e-01
   2.84063e+06   1.75383e-01  -9.58084e-01  -1.84211e-01

*** _Debug_ *** Full stiffness matrix
   3.13187e+07   0.00000e+00  -7.36842e-01  -1.84211e-01
   0.00000e+00   6.88187e+07  -7.18563e-02  -9.58084e-01
  -7.36842e-01  -7.18563e-02   9.83842e+06   1.75383e-01
  -1.84211e-01  -9.58084e-01   1.75383e-01   2.84063e+06

*** _Debug_ *** Displacement vector
   2.50000e+01   0.00000e+00   5.00000e+00  -2.00000e+01

*** _Debug_ *** Displacement vector
   2.17488e-06  -6.32015e-06   3.58467e-06  -6.86551e-06

 D I S P L A C E M E N T S

  NODE            X-DISPLACEMENT    Y-DISPLACEMENT    Z-DISPLACEMENT
    1               0.00000e+00       0.00000e+00
    2               0.00000e+00       0.00000e+00
    3               2.17488e-06      -6.32015e-06
    4               3.58467e-06      -6.86551e-06

 S T R E S S  C A L C U L A T I O N S  F O R  E L E M E N T  G R O U P    1

  ELEMENT        Sigma_xx          sigma_yy              Sigma_xy
  NUMBER
    1           3.58497e+01       1.07549e+01          -3.64624e+01
    2           4.83006e+01      -1.82312e+01          -7.07516e+00


 S O L U T I O N   T I M E   L O G   I N   S E C 

     TIME FOR INPUT PHASE = 3.40000e-02
     TIME FOR CALCULATION OF STIFFNESS MATRIX = 1.30000e-02
     TIME FOR FACTORIZATION AND LOAD CASE SOLUTIONS = 2.10000e-02

     T O T A L   S O L U T I O N   T I M E = 6.80000e-02

