TITLE :  STAP90 input data for Patch Test C of Q8
        (15:25:8 on May 30, 2025, Friday)

C O N T R O L   I N F O R M A T I O N

      NUMBER OF NODAL POINTS . . . . . . . . . . (NUMNP)  =    20
      NUMBER OF ELEMENT GROUPS . . . . . . . . . (NUMEG)  =     1
      NUMBER OF LOAD CASES . . . . . . . . . . . (NLCASE) =     1
      SOLUTION MODE  . . . . . . . . . . . . . . (MODEX)  =     1
         EQ.0, DATA CHECK
         EQ.1, EXECUTION

 N O D A L   P O I N T   D A T A

    NODE       BOUNDARY                         NODAL POINT
   NUMBER  CONDITION  CODES                     COORDINATES
        1    1    1    1       0.00000e+00    0.00000e+00    0.00000e+00
        2    0    1    1       2.50000e+00    0.00000e+00    0.00000e+00
        3    0    0    1       2.50000e+00    3.00000e+00    0.00000e+00
        4    0    0    1       0.00000e+00    2.00000e+00    0.00000e+00
        5    0    0    1       5.00000e-01    5.00000e-01    0.00000e+00
        6    0    0    1       2.00000e+00    7.50000e-01    0.00000e+00
        7    0    0    1       1.75000e+00    1.75000e+00    0.00000e+00
        8    0    0    1       6.50000e-01    1.60000e+00    0.00000e+00
        9    0    0    1       1.25000e+00    0.00000e+00    0.00000e+00
       10    0    0    1       2.50000e+00    1.50000e+00    0.00000e+00
       11    0    0    1       1.25000e+00    2.50000e+00    0.00000e+00
       12    0    0    1       0.00000e+00    1.00000e+00    0.00000e+00
       13    0    0    1       1.25000e+00    6.25000e-01    0.00000e+00
       14    0    0    1       1.87500e+00    1.25000e+00    0.00000e+00
       15    0    0    1       1.20000e+00    1.67500e+00    0.00000e+00
       16    0    0    1       5.75000e-01    1.05000e+00    0.00000e+00
       17    0    0    1       2.25000e+00    3.75000e-01    0.00000e+00
       18    0    0    1       2.12500e+00    2.37500e+00    0.00000e+00
       19    0    0    1       3.25000e-01    1.80000e+00    0.00000e+00
       20    0    0    1       2.50000e-01    2.50000e-01    0.00000e+00

 EQUATION NUMBERS

   NODE NUMBER   DEGREES 	OF 	FREEDOM
        N           X    Y    Z    x    y    z
        1           0    0    0  N/A  N/A  N/A
        2           1    0    0  N/A  N/A  N/A
        3           2    3    0  N/A  N/A  N/A
        4           4    5    0  N/A  N/A  N/A
        5           6    7    0  N/A  N/A  N/A
        6           8    9    0  N/A  N/A  N/A
        7          10   11    0  N/A  N/A  N/A
        8          12   13    0  N/A  N/A  N/A
        9          14   15    0  N/A  N/A  N/A
       10          16   17    0  N/A  N/A  N/A
       11          18   19    0  N/A  N/A  N/A
       12          20   21    0  N/A  N/A  N/A
       13          22   23    0  N/A  N/A  N/A
       14          24   25    0  N/A  N/A  N/A
       15          26   27    0  N/A  N/A  N/A
       16          28   29    0  N/A  N/A  N/A
       17          30   31    0  N/A  N/A  N/A
       18          32   33    0  N/A  N/A  N/A
       19          34   35    0  N/A  N/A  N/A
       20          36   37    0  N/A  N/A  N/A

 L O A D   C A S E   D A T A

     LOAD CASE NUMBER . . . . . . . =     1
     SURFACE  FORCES OF Q8 ELEMENTS . =     3

 ELEMENT       1-NODE        2-NODE        3-NODE        TX1-LOAD       TY1-LOAD       TX2-LOAD       TY2-LOAD       TX3-LOAD       TY3-LOAD
 NUMBER        NUMBER        NUMBER        NUMBER        MAGNITUDE      MAGNITUDE      MAGNITUDE      MAGNITUDE      MAGNITUDE      MAGNITUDE
   2            1            2            5       1.00000e+01       0.00000e+00       1.00000e+01       0.00000e+00       1.00000e+01       0.00000e+00
   3            1            2            5      -3.71390e+00       0.00000e+00      -3.71390e+00       0.00000e+00      -3.71390e+00       0.00000e+00
   4            1            2            5      -1.00000e+01       0.00000e+00      -1.00000e+01       0.00000e+00      -1.00000e+01       0.00000e+00

 E L E M E N T   G R O U P   D A T A


 E L E M E N T   D E F I N I T I O N

 ELEMENT TYPE  . . . . . . . . . . . . .( NPAR(1) ) . . =    4
     EQ.1, TRUSS ELEMENTS
     EQ.2, ELEMENTS CURRENTLY
     EQ.3, NOT AVAILABLE
     EQ.4, Q8
     EQ.7, H8

 NUMBER OF ELEMENTS. . . . . . . . . . .( NPAR(2) ) . . =    5

 M A T E R I A L   D E F I N I T I O N

 NUMBER OF DIFFERENT SETS OF MATERIAL    1

  SET       YOUNG'S        POISSON'S        THICK        PLANE-
 NUMBER     MODULUS          RATIO          -NESS        STRAIN
               E              nu              t           FLAG
    1     1.00000e+03     3.00000e-01     1.00000e+00       0


 E L E M E N T   I N F O R M A T I O N
 ELEMENT     NODE       NODE     	NODE      NODE      NODE       NODE        NODE        NODE        MATERIAL
 NUMBER-N      I          J         K         L         M          N           O           P          SET NUMBER
    1          1          2          6          5          9         17         13         20           1
    2          2          3          7          6         10         18         14         17           1
    3          3          4          8          7         11         19         15         18           1
    4          4          1          5          8         12         20         16         19           1
    5          5          6          7          8         13         14         15         16           1

	TOTAL SYSTEM DATA

     NUMBER OF EQUATIONS . . . . . . . . . . . . . .(NEQ) = 37
     NUMBER OF MATRIX ELEMENTS . . . . . . . . . . .(NWK) = 681
     MAXIMUM HALF BANDWIDTH  . . . . . . . . . . . .(MK ) = 37
     MEAN HALF BANDWIDTH . . . . . . . . . . . . . .(MM ) = 18


 D I S P L A C E M E N T S

  NODE            X-DISPLACEMENT    Y-DISPLACEMENT    Z-DISPLACEMENT    X-ROTATION    Y-ROTATION    Z-ROTATION
    1               0.00000e+00       0.00000e+00       0.00000e+00         N/A          N/A            N/A
    2               2.50001e-02       0.00000e+00       0.00000e+00         N/A          N/A            N/A
    3               2.50002e-02      -9.00008e-03       0.00000e+00         N/A          N/A            N/A
    4               1.33576e-07      -5.99997e-03       0.00000e+00         N/A          N/A            N/A
    5               5.00006e-03      -1.50001e-03       0.00000e+00         N/A          N/A            N/A
    6               2.00001e-02      -2.25003e-03       0.00000e+00         N/A          N/A            N/A
    7               1.75001e-02      -5.25003e-03       0.00000e+00         N/A          N/A            N/A
    8               6.50012e-03      -4.79999e-03       0.00000e+00         N/A          N/A            N/A
    9               1.25001e-02      -1.99989e-08       0.00000e+00         N/A          N/A            N/A
   10               2.50001e-02      -4.50006e-03       0.00000e+00         N/A          N/A            N/A
   11               1.25002e-02      -7.50001e-03       0.00000e+00         N/A          N/A            N/A
   12               8.84382e-08      -2.99998e-03       0.00000e+00         N/A          N/A            N/A
   13               1.25001e-02      -1.87502e-03       0.00000e+00         N/A          N/A            N/A
   14               1.87501e-02      -3.75003e-03       0.00000e+00         N/A          N/A            N/A
   15               1.20001e-02      -5.02501e-03       0.00000e+00         N/A          N/A            N/A
   16               5.75008e-03      -3.15000e-03       0.00000e+00         N/A          N/A            N/A
   17               2.25001e-02      -1.12502e-03       0.00000e+00         N/A          N/A            N/A
   18               2.12502e-02      -7.12505e-03       0.00000e+00         N/A          N/A            N/A
   19               3.25013e-03      -5.39998e-03       0.00000e+00         N/A          N/A            N/A
   20               2.50003e-03      -7.50006e-04       0.00000e+00         N/A          N/A            N/A

 S T R E S S  C A L C U L A T I O N S  F O R  E L E M E N T  G R O U P    1

ELEMENT NUMBER	  	x-coord	    	    y-coord           Sigma_xx             sigma_yy               Sigma_xy
GAUSSPOINT NUMBER
       1-1           5.89316e-01           1.16827e-01       1.00000e+01           1.53125e-05           8.73833e-06
       1-2           7.55983e-01           4.36004e-01       1.00000e+01           1.86277e-05           1.10580e-05
       1-3           1.91068e+00           1.47329e-01       1.00000e+01          -1.68862e-05           5.96361e-06
       1-4           1.74402e+00           5.49840e-01       1.00000e+01          -1.17669e-05           2.94780e-06
       2-1           2.38317e+00           7.03152e-01       1.00000e+01          -3.72219e-05           2.87602e-06
       2-2           2.06400e+00           8.92148e-01       1.00000e+01          -2.26611e-05           7.35169e-06
       2-3           2.35267e+00           2.19119e+00       1.00000e+01          -8.46361e-06           4.34815e-06
       2-4           1.95016e+00           1.71351e+00       1.00000e+01          -9.14643e-06           4.95271e-06
       3-1           1.87572e+00           2.56248e+00       1.00000e+01          -2.16020e-06           8.25535e-06
       3-2           1.61351e+00           1.94450e+00       1.00000e+01           2.47988e-06           1.03559e-05
       3-3           6.03152e-01           2.08884e+00       1.00000e+01           7.81545e-06           7.63459e-06
       3-4           8.07618e-01           1.75419e+00       1.00000e+01           8.75224e-06           5.24642e-06
       4-1           1.30662e-01           1.53301e+00       9.99999e+00           1.49353e-06           9.37805e-07
       4-2           4.87639e-01           1.41188e+00       9.99999e+00           1.29437e-05           8.06261e-06
       4-3           1.12361e-01           4.88120e-01       1.00000e+01           2.99089e-05           1.06705e-05
       4-4           4.19338e-01           6.66987e-01       1.00000e+01           2.50624e-05           5.33497e-06
       5-1           8.30823e-01           7.80823e-01       1.00000e+01           1.02189e-05           1.06494e-05
       5-2           8.68622e-01           1.40371e+00       9.99999e+00           1.31400e-05           1.11069e-05
       5-3           1.64804e+00           9.12959e-01       1.00000e+01          -2.92306e-06           1.04959e-05
       5-4           1.55251e+00           1.50251e+00       1.00000e+01          -2.54636e-06           8.70892e-06


 S O L U T I O N   T I M E   L O G   I N   S E C 

     TIME FOR INPUT PHASE = 1.24000e-01
     TIME FOR CALCULATION OF STIFFNESS MATRIX = 1.00000e-03
     TIME FOR FACTORIZATION AND LOAD CASE SOLUTIONS = 9.50000e-02

     T O T A L   S O L U T I O N   T I M E = 2.20000e-01

