TITLE : STAP90 input data for Patch Test C of Tet4
        (12:51:36 on June 6, 2025, Friday)

C O N T R O L   I N F O R M A T I O N

      NUMBER OF NODAL POINTS . . . . . . . . . . (NUMNP)  =     9
      NUMBER OF ELEMENT GROUPS . . . . . . . . . (NUMEG)  =     1
      NUMBER OF LOAD CASES . . . . . . . . . . . (NLCASE) =     1
      SOLUTION MODE  . . . . . . . . . . . . . . (MODEX)  =     1
         EQ.0, DATA CHECK
         EQ.1, EXECUTION

 N O D A L   P O I N T   D A T A

    NODE       BOUNDARY                         NODAL POINT
   NUMBER  CONDITION  CODES                     COORDINATES
        1    0    0    0       2.50000e+00    3.00000e+00    2.00000e+00
        2    0    1    0       2.50000e+00    0.00000e+00    2.00000e+00
        3    0    0    0       2.50000e+00    0.00000e+00    0.00000e+00
        4    0    0    0       2.50000e+00    3.00000e+00    0.00000e+00
        5    1    1    0       0.00000e+00    0.00000e+00    2.00000e+00
        6    1    1    1       0.00000e+00    0.00000e+00    0.00000e+00
        7    0    0    0       0.00000e+00    2.00000e+00    0.00000e+00
        8    0    0    0       0.00000e+00    2.00000e+00    2.00000e+00
        9    0    0    0       1.05783e+00    1.18233e+00    1.02378e+00

 EQUATION NUMBERS

   NODE NUMBER   DEGREES 	OF 	FREEDOM
        N           X    Y    Z    x    y    z
        1           1    2    3  N/A  N/A  N/A
        2           4    0    5  N/A  N/A  N/A
        3           6    7    8  N/A  N/A  N/A
        4           9   10   11  N/A  N/A  N/A
        5           0    0   12  N/A  N/A  N/A
        6           0    0    0  N/A  N/A  N/A
        7          13   14   15  N/A  N/A  N/A
        8          16   17   18  N/A  N/A  N/A
        9          19   20   21  N/A  N/A  N/A

 L O A D   C A S E   D A T A

     LOAD CASE NUMBER . . . . . . . =    18
     BODY FORCES OF H8 ELEMENTS . =     6

 ELEMENT       1-NODE        2-NODE        3-NODE        TX1-LOAD       TY1-LOAD       TZ1-LOAD       TX2-LOAD       TY2-LOAD       TZ2-LOAD       TX3-LOAD       TY3-LOAD       TZ3-LOAD
 NUMBER        NUMBER        NUMBER        NUMBER        NUMBER        MAGNITUDE      MAGNITUDE      MAGNITUDE      MAGNITUDE      MAGNITUDE      MAGNITUDE      MAGNITUDE      MAGNITUDE      MAGNITUDE
   5            1            2            4       1.00000e+01       0.00000e+00       0.00000e+00       1.00000e+01       0.00000e+00       0.00000e+00       1.00000e+01       0.00000e+00       0.00000e+00
   7            1            2            4       1.00000e+01       0.00000e+00       0.00000e+00       1.00000e+01       0.00000e+00       0.00000e+00       1.00000e+01       0.00000e+00       0.00000e+00
   8            1            3            4      -1.00000e+01       0.00000e+00       0.00000e+00      -1.00000e+01       0.00000e+00       0.00000e+00      -1.00000e+01       0.00000e+00       0.00000e+00
  11            1            3            4      -1.00000e+01       0.00000e+00       0.00000e+00      -1.00000e+01       0.00000e+00       0.00000e+00      -1.00000e+01       0.00000e+00       0.00000e+00
   2            1            3            4      -3.71390e+00       0.00000e+00       0.00000e+00      -3.71390e+00       0.00000e+00       0.00000e+00      -3.71390e+00       0.00000e+00       0.00000e+00
   6            1            2            3      -3.71390e+00       0.00000e+00       0.00000e+00      -3.71390e+00       0.00000e+00       0.00000e+00      -3.71390e+00       0.00000e+00       0.00000e+00

 E L E M E N T   G R O U P   D A T A


 E L E M E N T   D E F I N I T I O N

 ELEMENT TYPE  . . . . . . . . . . . . .( NPAR(1) ) . . =   11
     EQ.1, TRUSS ELEMENTS
     EQ.2, CST
     EQ.3, Q4
     EQ.4, Q8
     EQ.7, H8
     EQ.11, Tet4

 NUMBER OF ELEMENTS. . . . . . . . . . .( NPAR(2) ) . . =   12

 M A T E R I A L   D E F I N I T I O N

 NUMBER OF DIFFERENT SETS OF MATERIAL    1

  SET       YOUNG'S        POISSON'S       
 NUMBER     MODULUS          RATIO          
               E              nu            
    1     1.00000e+03     3.00000e-01


 E L E M E N T   I N F O R M A T I O N
 ELEMENT     NODE       NODE     	NODE      NODE        MATERIAL
 NUMBER-N      I          J         K         L          SET NUMBER
    1          7          3          9          6           1
    2          7          9          4          8           1
    3          9          2          6          3           1
    4          9          1          8          2           1
    5          1          3          9          4           1
    6          4          1          8          9           1
    7          2          3          9          1           1
    8          7          9          5          6           1
    9          9          6          2          5           1
   10          2          9          5          8           1
   11          8          9          5          7           1
   12          3          9          4          7           1

	TOTAL SYSTEM DATA

     NUMBER OF EQUATIONS . . . . . . . . . . . . . .(NEQ) = 21
     NUMBER OF MATRIX ELEMENTS . . . . . . . . . . .(NWK) = 213
     MAXIMUM HALF BANDWIDTH  . . . . . . . . . . . .(MK ) = 21
     MEAN HALF BANDWIDTH . . . . . . . . . . . . . .(MM ) = 10


 D I S P L A C E M E N T S

  NODE            X-DISPLACEMENT    Y-DISPLACEMENT    Z-DISPLACEMENT    X-ROTATION    Y-ROTATION    Z-ROTATION
    1               2.50001e-02      -9.00003e-03      -6.00005e-03         N/A          N/A            N/A
    2               2.50000e-02       0.00000e+00      -5.99999e-03         N/A          N/A            N/A
    3               2.50000e-02      -6.71893e-08       5.96861e-09         N/A          N/A            N/A
    4               2.50001e-02      -9.00006e-03      -3.94617e-08         N/A          N/A            N/A
    5               0.00000e+00       0.00000e+00      -6.00000e-03         N/A          N/A            N/A
    6               0.00000e+00       0.00000e+00       0.00000e+00         N/A          N/A            N/A
    7               8.89682e-08      -5.99998e-03      -2.57484e-08         N/A          N/A            N/A
    8               7.56914e-08      -5.99997e-03      -6.00003e-03         N/A          N/A            N/A
    9               1.05784e-02      -3.54701e-03      -3.07135e-03         N/A          N/A            N/A

 S T R E S S  C A L C U L A T I O N S  F O R  E L E M E N T  G R O U P    1

ELEMENT NUMBER   x-coord      y-coord      z-coord           Sigma_xx           Sigma_yy           Sigma_zz           Sigma_xy           Sigma_xz           Sigma_yz
  NUMBER
    1           1.00000e+01       1.14540e-05           3.76652e-06           6.77245e-06          -9.71882e-07          -5.22137e-08
    2           1.00000e+01      -5.30041e-06          -5.34171e-06           5.04017e-06          -2.08581e-06          -4.01902e-06
    3           1.00000e+01      -1.02203e-05          -5.00809e-07           3.85610e-06           2.39613e-06           6.44753e-06
    4           1.00000e+01      -1.11412e-05          -3.03850e-06           7.00314e-06           1.24876e-06           1.47053e-06
    5           1.00000e+01       2.21283e-06          -1.31743e-06           5.23443e-06          -1.98249e-06          -1.72989e-07
    6           1.00000e+01      -5.15465e-06          -3.81084e-06           7.69130e-06          -1.15614e-06          -8.28626e-07
    7           1.00000e+01      -1.07242e-05          -3.05039e-07           4.15520e-06           1.76505e-06           5.67777e-06
    8           1.00000e+01       9.36765e-06           2.55700e-06           1.15141e-05           4.93961e-07          -4.95162e-06
    9           1.00000e+01      -3.63585e-06          -4.34572e-07           1.44148e-05           1.97359e-06          -6.27544e-06
   10           1.00000e+01       2.26596e-05           1.13892e-05           1.45560e-05           2.14463e-06           2.88328e-06
   11           1.00000e+01       1.68520e-05           2.86633e-06           8.48861e-06          -1.83255e-06          -3.69137e-06
   12           1.00000e+01       2.84136e-06           1.01299e-07           4.74917e-06          -1.66832e-06          -8.56563e-07


 S O L U T I O N   T I M E   L O G   I N   S E C 

     TIME FOR INPUT PHASE = 6.10000e-02
     TIME FOR CALCULATION OF STIFFNESS MATRIX = 2.00000e-03
     TIME FOR FACTORIZATION AND LOAD CASE SOLUTIONS = 4.00000e-02

     T O T A L   S O L U T I O N   T I M E = 1.03000e-01

