TITLE :  STAP90 input data for Patch Test B of H8
        (22:16:48 on May 31, 2025, Saturday)

C O N T R O L   I N F O R M A T I O N

      NUMBER OF NODAL POINTS . . . . . . . . . . (NUMNP)  =    27
      NUMBER OF ELEMENT GROUPS . . . . . . . . . (NUMEG)  =     1
      NUMBER OF LOAD CASES . . . . . . . . . . . (NLCASE) =     0
      SOLUTION MODE  . . . . . . . . . . . . . . (MODEX)  =     1
         EQ.0, DATA CHECK
         EQ.1, EXECUTION

 N O D A L   P O I N T   D A T A

    NODE       BOUNDARY                         NODAL POINT
   NUMBER  CONDITION  CODES                     COORDINATES
        1    2    2    2       2.50000e+00    0.00000e+00    2.00000e+00
        2    0    0    0       1.25000e+00    0.00000e+00    2.00000e+00
        3    2    2    2       0.00000e+00    0.00000e+00    2.00000e+00
        4    2    2    2       2.50000e+00    0.00000e+00    1.00000e+00
        5    2    2    2       1.25000e+00    0.00000e+00    1.00000e+00
        6    2    2    2       0.00000e+00    0.00000e+00    1.00000e+00
        7    2    2    2       2.50000e+00    0.00000e+00    0.00000e+00
        8    2    2    2       1.25000e+00    0.00000e+00    0.00000e+00
        9    2    2    2       0.00000e+00    0.00000e+00    0.00000e+00
       10    2    2    2       2.50000e+00    1.50000e+00    2.00000e+00
       11    0    0    0       1.25000e+00    1.25000e+00    2.00000e+00
       12    2    2    2       0.00000e+00    1.00000e+00    2.00000e+00
       13    2    2    2       2.50000e+00    1.50000e+00    1.00000e+00
       14    0    0    0       1.25000e+00    1.25000e+00    1.00000e+00
       15    2    2    2       0.00000e+00    1.00000e+00    1.00000e+00
       16    2    2    2       2.50000e+00    1.50000e+00    0.00000e+00
       17    2    2    2       1.25000e+00    1.25000e+00    0.00000e+00
       18    2    2    2       0.00000e+00    1.00000e+00    0.00000e+00
       19    2    2    2       2.50000e+00    3.00000e+00    2.00000e+00
       20    2    2    2       1.25000e+00    2.50000e+00    2.00000e+00
       21    2    2    2       0.00000e+00    2.00000e+00    2.00000e+00
       22    2    2    2       2.50000e+00    3.00000e+00    1.00000e+00
       23    2    2    2       1.25000e+00    2.50000e+00    1.00000e+00
       24    2    2    2       0.00000e+00    2.00000e+00    1.00000e+00
       25    2    2    2       2.50000e+00    3.00000e+00    0.00000e+00
       26    2    2    2       1.25000e+00    2.50000e+00    0.00000e+00
       27    2    2    2       0.00000e+00    2.00000e+00    0.00000e+00

 EQUATION NUMBERS

   NODE NUMBER   DEGREES 	OF 	FREEDOM
        N           X    Y    Z    x    y    z
        1           0    0    0  N/A  N/A  N/A
        2           1    2    3  N/A  N/A  N/A
        3           0    0    0  N/A  N/A  N/A
        4           0    0    0  N/A  N/A  N/A
        5           0    0    0  N/A  N/A  N/A
        6           0    0    0  N/A  N/A  N/A
        7           0    0    0  N/A  N/A  N/A
        8           0    0    0  N/A  N/A  N/A
        9           0    0    0  N/A  N/A  N/A
       10           0    0    0  N/A  N/A  N/A
       11           4    5    6  N/A  N/A  N/A
       12           0    0    0  N/A  N/A  N/A
       13           0    0    0  N/A  N/A  N/A
       14           7    8    9  N/A  N/A  N/A
       15           0    0    0  N/A  N/A  N/A
       16           0    0    0  N/A  N/A  N/A
       17           0    0    0  N/A  N/A  N/A
       18           0    0    0  N/A  N/A  N/A
       19           0    0    0  N/A  N/A  N/A
       20           0    0    0  N/A  N/A  N/A
       21           0    0    0  N/A  N/A  N/A
       22           0    0    0  N/A  N/A  N/A
       23           0    0    0  N/A  N/A  N/A
       24           0    0    0  N/A  N/A  N/A
       25           0    0    0  N/A  N/A  N/A
       26           0    0    0  N/A  N/A  N/A
       27           0    0    0  N/A  N/A  N/A

 E L E M E N T   G R O U P   D A T A


 E L E M E N T   D E F I N I T I O N

 ELEMENT TYPE  . . . . . . . . . . . . .( NPAR(1) ) . . =    7
     EQ.1, TRUSS ELEMENTS
     EQ.2, CST
     EQ.3, Q4
     EQ.4, Q8
     EQ.7, H8

 NUMBER OF ELEMENTS. . . . . . . . . . .( NPAR(2) ) . . =    8

 M A T E R I A L   D E F I N I T I O N

 NUMBER OF DIFFERENT SETS OF MATERIAL    1

  SET       YOUNG'S        POISSON'S        THICK        PLANE-
 NUMBER     MODULUS          RATIO          -NESS        STRAIN
               E              nu              t           FLAG
    1     1.00000e+03     3.00000e-01


 E L E M E N T   I N F O R M A T I O N
 ELEMENT     NODE       NODE     	NODE      NODE      NODE       NODE        NODE        NODE        MATERIAL
 NUMBER-N      I          J         K         L         M          N           O           P          SET NUMBER
    1         10         11         14         13          1          2          5          4           1
    2         11         12         15         14          2          3          6          5           1
    3         13         14         17         16          4          5          8          7           1
    4         14         15         18         17          5          6          9          8           1
    5         19         20         23         22         10         11         14         13           1
    6         20         21         24         23         11         12         15         14           1
    7         22         23         26         25         13         14         17         16           1
    8         23         24         27         26         14         15         18         17           1

	TOTAL SYSTEM DATA

     NUMBER OF EQUATIONS . . . . . . . . . . . . . .(NEQ) = 9
     NUMBER OF MATRIX ELEMENTS . . . . . . . . . . .(NWK) = 45
     MAXIMUM HALF BANDWIDTH  . . . . . . . . . . . .(MK ) = 9
     MEAN HALF BANDWIDTH . . . . . . . . . . . . . .(MM ) = 5


 D I S P L A C E M E N T S

  NODE            X-DISPLACEMENT    Y-DISPLACEMENT    Z-DISPLACEMENT    X-ROTATION    Y-ROTATION    Z-ROTATION
    1               2.50000e-02      -0.00000e+00      -6.00000e-03         N/A          N/A            N/A
    2               1.25000e-02       2.60209e-18      -6.00000e-03         N/A          N/A            N/A
    3               0.00000e+00      -0.00000e+00      -6.00000e-03         N/A          N/A            N/A
    4               2.50000e-02      -0.00000e+00      -3.00000e-03         N/A          N/A            N/A
    5               1.25000e-02      -0.00000e+00      -3.00000e-03         N/A          N/A            N/A
    6               0.00000e+00      -0.00000e+00      -3.00000e-03         N/A          N/A            N/A
    7               2.50000e-02      -0.00000e+00      -0.00000e+00         N/A          N/A            N/A
    8               1.25000e-02      -0.00000e+00      -0.00000e+00         N/A          N/A            N/A
    9               0.00000e+00      -0.00000e+00      -0.00000e+00         N/A          N/A            N/A
   10               2.50000e-02      -4.50000e-03      -6.00000e-03         N/A          N/A            N/A
   11               1.25000e-02      -3.75000e-03      -6.00000e-03         N/A          N/A            N/A
   12               0.00000e+00      -3.00000e-03      -6.00000e-03         N/A          N/A            N/A
   13               2.50000e-02      -4.50000e-03      -3.00000e-03         N/A          N/A            N/A
   14               1.25000e-02      -3.75000e-03      -3.00000e-03         N/A          N/A            N/A
   15               0.00000e+00      -3.00000e-03      -3.00000e-03         N/A          N/A            N/A
   16               2.50000e-02      -4.50000e-03      -0.00000e+00         N/A          N/A            N/A
   17               1.25000e-02      -3.75000e-03      -0.00000e+00         N/A          N/A            N/A
   18               0.00000e+00      -3.00000e-03      -0.00000e+00         N/A          N/A            N/A
   19               2.50000e-02      -9.00000e-03      -6.00000e-03         N/A          N/A            N/A
   20               1.25000e-02      -7.50000e-03      -6.00000e-03         N/A          N/A            N/A
   21               0.00000e+00      -6.00000e-03      -6.00000e-03         N/A          N/A            N/A
   22               2.50000e-02      -9.00000e-03      -3.00000e-03         N/A          N/A            N/A
   23               1.25000e-02      -7.50000e-03      -3.00000e-03         N/A          N/A            N/A
   24               0.00000e+00      -6.00000e-03      -3.00000e-03         N/A          N/A            N/A
   25               2.50000e-02      -9.00000e-03      -0.00000e+00         N/A          N/A            N/A
   26               1.25000e-02      -7.50000e-03      -0.00000e+00         N/A          N/A            N/A
   27               0.00000e+00      -6.00000e-03      -0.00000e+00         N/A          N/A            N/A

 S T R E S S  C A L C U L A T I O N S  F O R  E L E M E N T  G R O U P    1

ELEMENT NUMBER   x-coord      y-coord      z-coord           Sigma_xx           Sigma_yy           Sigma_zz           Sigma_xy           Sigma_xz           Sigma_yz
GAUSSPOINT NUMBER
  1-1       2.23584e+00    1.14135e+00    1.78868e+00       1.00000e+01       1.33227e-15       2.66454e-15      -2.22045e-16       2.77556e-16       1.11022e-16
  1-2       2.23584e+00    3.05823e-01    1.78868e+00       1.00000e+01       2.44249e-15       4.88498e-15      -1.33227e-15      -9.43690e-16       2.22045e-16
  1-3       2.23584e+00    1.14135e+00    1.21132e+00       1.00000e+01       4.66294e-15       4.32987e-15      -8.88178e-16      -3.33067e-16      -2.77556e-16
  1-4       2.23584e+00    3.05823e-01    1.21132e+00       1.00000e+01       1.99840e-15       1.77636e-15      -8.88178e-16       1.11022e-15       5.55112e-17
  1-5       1.51416e+00    1.02751e+00    1.78868e+00       1.00000e+01       1.24900e-16       4.44089e-16      -6.66134e-16      -7.49401e-16      -4.44089e-16
  1-6       1.51416e+00    2.75321e-01    1.78868e+00       1.00000e+01      -2.38698e-15      -8.88178e-16      -1.88738e-15      -3.05311e-16       4.44089e-16
  1-7       1.51416e+00    1.02751e+00    1.21132e+00       1.00000e+01       1.02696e-15       1.13798e-15      -8.88178e-16      -8.04912e-16      -4.71845e-16
  1-8       1.51416e+00    2.75321e-01    1.21132e+00       1.00000e+01      -5.55112e-16      -6.66134e-16      -8.88178e-16      -4.44089e-16       4.16334e-16
  2-1       9.85844e-01    9.44177e-01    1.78868e+00       1.00000e+01      -4.10783e-15      -6.66134e-16      -1.88738e-15      -7.63278e-16      -9.71445e-16
  2-2       9.85844e-01    2.52992e-01    1.78868e+00       1.00000e+01      -2.88658e-15       4.44089e-16      -1.11022e-15       0.00000e+00       1.38778e-16
  2-3       9.85844e-01    9.44177e-01    1.21132e+00       1.00000e+01      -1.22125e-15      -6.66134e-16      -1.33227e-15      -3.33067e-16      -4.44089e-16
  2-4       9.85844e-01    2.52992e-01    1.21132e+00       1.00000e+01       6.66134e-16       2.22045e-15      -1.33227e-15       2.22045e-16       4.44089e-16
  2-5       2.64156e-01    8.30342e-01    1.78868e+00       1.00000e+01      -2.91434e-15      -2.41474e-15      -9.43690e-16      -1.04083e-16      -2.01228e-16
  2-6       2.64156e-01    2.22489e-01    1.78868e+00       1.00000e+01      -9.99201e-16      -6.66134e-16      -5.55112e-17       1.66533e-16       2.08167e-17
  2-7       2.64156e-01    8.30342e-01    1.21132e+00       1.00000e+01      -2.02616e-15      -2.41474e-15      -4.44089e-16      -1.38778e-16      -1.66533e-16
  2-8       2.64156e-01    2.22489e-01    1.21132e+00       1.00000e+01      -1.88738e-15      -1.55431e-15      -3.33067e-16      -1.11022e-16       5.55112e-17
  3-1       2.23584e+00    1.14135e+00    7.88675e-01       1.00000e+01       2.74780e-15       2.96985e-15       0.00000e+00      -2.22045e-16       2.77556e-17
  3-2       2.23584e+00    3.05823e-01    7.88675e-01       1.00000e+01       1.88738e-15       1.55431e-15       8.88178e-16      -8.88178e-16      -8.32667e-17
  3-3       2.23584e+00    1.14135e+00    2.11325e-01       1.00000e+01       2.81719e-15       2.55351e-15      -8.88178e-16      -4.44089e-16       2.08167e-17
  3-4       2.23584e+00    3.05823e-01    2.11325e-01       1.00000e+01       1.94289e-15       1.77636e-15       0.00000e+00       0.00000e+00       2.08167e-17
  3-5       1.51416e+00    1.02751e+00    7.88675e-01       1.00000e+01       2.44249e-15       1.99840e-15      -5.55112e-16      -1.66533e-16       2.22045e-16
  3-6       1.51416e+00    2.75321e-01    7.88675e-01       1.00000e+01       4.44089e-16      -4.44089e-16      -5.55112e-16       0.00000e+00       1.11022e-16
  3-7       1.51416e+00    1.02751e+00    2.11325e-01       1.00000e+01       1.44329e-15       4.44089e-16      -8.88178e-16      -1.27676e-15       0.00000e+00
  3-8       1.51416e+00    2.75321e-01    2.11325e-01       1.00000e+01      -1.11022e-15      -1.33227e-15       0.00000e+00       0.00000e+00       2.77556e-17
  4-1       9.85844e-01    9.44177e-01    7.88675e-01       1.00000e+01       1.13798e-15       2.41474e-15      -7.77156e-16      -4.44089e-16       8.32667e-17
  4-2       9.85844e-01    2.52992e-01    7.88675e-01       1.00000e+01       1.22125e-15       1.99840e-15      -7.77156e-16      -4.44089e-16       4.16334e-16
  4-3       9.85844e-01    9.44177e-01    2.11325e-01       1.00000e+01       9.15934e-16       2.41474e-15       0.00000e+00      -7.77156e-16       8.32667e-17
  4-4       9.85844e-01    2.52992e-01    2.11325e-01       1.00000e+01       9.99201e-16       1.99840e-15      -4.44089e-16       0.00000e+00       2.77556e-17
  4-5       2.64156e-01    8.30342e-01    7.88675e-01       1.00000e+01       3.33067e-16      -4.44089e-16      -2.22045e-16      -8.32667e-17       3.33067e-16
  4-6       2.64156e-01    2.22489e-01    7.88675e-01       1.00000e+01       2.22045e-16      -1.33227e-15      -1.11022e-16       0.00000e+00       1.11022e-16
  4-7       2.64156e-01    8.30342e-01    2.11325e-01       1.00000e+01      -7.77156e-16      -1.33227e-15       0.00000e+00      -1.11022e-16      -1.38778e-16
  4-8       2.64156e-01    2.22489e-01    2.11325e-01       1.00000e+01      -6.66134e-16      -2.22045e-15      -2.22045e-16       0.00000e+00      -2.77556e-17
  5-1       2.23584e+00    2.58851e+00    1.78868e+00       1.00000e+01       1.11022e-15       1.11022e-15       3.05311e-16      -9.15934e-16      -2.77556e-17
  5-2       2.23584e+00    1.75299e+00    1.78868e+00       1.00000e+01       1.77636e-15       2.22045e-15       8.32667e-16       5.27356e-16      -2.49800e-16
  5-3       2.23584e+00    2.58851e+00    1.21132e+00       1.00000e+01      -2.22045e-16      -1.11022e-15      -7.77156e-16       5.55112e-17       5.55112e-17
  5-4       2.23584e+00    1.75299e+00    1.21132e+00       1.00000e+01       3.33067e-15       2.22045e-15       0.00000e+00      -9.99201e-16       1.11022e-16
  5-5       1.51416e+00    2.33034e+00    1.78868e+00       1.00000e+01       1.56819e-15      -3.33067e-16       1.38778e-15       3.81639e-16       2.77556e-16
  5-6       1.51416e+00    1.57815e+00    1.78868e+00       1.00000e+01       3.16414e-15       1.33227e-15       2.35922e-15      -1.47105e-15      -5.27356e-16
  5-7       1.51416e+00    2.33034e+00    1.21132e+00       1.00000e+01       4.16334e-16       1.38778e-16       1.22125e-15       4.99600e-16      -5.55112e-17
  5-8       1.51416e+00    1.57815e+00    1.21132e+00       1.00000e+01       5.55112e-16       2.22045e-16       9.99201e-16      -1.33227e-15      -6.93889e-16
  6-1       9.85844e-01    2.14135e+00    1.78868e+00       1.00000e+01       2.38698e-15       1.11022e-16       1.44329e-15      -9.71445e-17      -3.88578e-16
  6-2       9.85844e-01    1.45016e+00    1.78868e+00       1.00000e+01       6.66134e-16      -1.77636e-15       1.11022e-15      -7.77156e-16      -1.66533e-16
  6-3       9.85844e-01    2.14135e+00    1.21132e+00       1.00000e+01      -2.77556e-16      -7.77156e-16       8.88178e-16      -2.77556e-16      -1.11022e-16
  6-4       9.85844e-01    1.45016e+00    1.21132e+00       1.00000e+01      -2.22045e-16      -8.88178e-16       1.66533e-15      -4.44089e-16      -8.88178e-16
  6-5       2.64156e-01    1.88317e+00    1.78868e+00       1.00000e+01      -6.38378e-16      -6.66134e-16       5.13478e-16      -1.17961e-16       9.57567e-16
  6-6       2.64156e-01    1.27532e+00    1.78868e+00       1.00000e+01      -1.72085e-15      -1.22125e-15      -5.55112e-17      -1.11022e-16       2.91434e-16
  6-7       2.64156e-01    1.88317e+00    1.21132e+00       1.00000e+01      -1.30451e-15      -6.66134e-16       4.99600e-16      -1.94289e-16      -2.49800e-16
  6-8       2.64156e-01    1.27532e+00    1.21132e+00       1.00000e+01      -1.27676e-15      -2.10942e-15       6.66134e-16      -1.11022e-16      -1.38778e-16
  7-1       2.23584e+00    2.58851e+00    7.88675e-01       1.00000e+01       6.93889e-16       1.11022e-15       3.05311e-16      -6.66134e-16       5.55112e-17
  7-2       2.23584e+00    1.75299e+00    7.88675e-01       1.00000e+01       1.49880e-15       1.66533e-15       1.66533e-16       0.00000e+00       2.22045e-16
  7-3       2.23584e+00    2.58851e+00    2.11325e-01       1.00000e+01      -4.99600e-16      -1.08247e-15      -7.77156e-16       2.22045e-16       2.22045e-16
  7-4       2.23584e+00    1.75299e+00    2.11325e-01       1.00000e+01       1.27676e-15       9.99201e-16       0.00000e+00       8.88178e-16       2.22045e-16
  7-5       1.51416e+00    2.33034e+00    7.88675e-01       1.00000e+01       0.00000e+00      -1.11022e-16       7.21645e-16       5.55112e-17      -1.38778e-16
  7-6       1.51416e+00    1.57815e+00    7.88675e-01       1.00000e+01       1.11022e-15       8.88178e-16       1.24900e-15      -8.88178e-16       1.66533e-16
  7-7       1.51416e+00    2.33034e+00    2.11325e-01       1.00000e+01       1.66533e-16       1.11022e-16       3.33067e-16      -3.88578e-16       1.94289e-16
  7-8       1.51416e+00    1.57815e+00    2.11325e-01       1.00000e+01      -6.66134e-16      -8.88178e-16       1.11022e-16      -8.88178e-16       0.00000e+00
  8-1       9.85844e-01    2.14135e+00    7.88675e-01       1.00000e+01       7.49401e-16       3.05311e-16       1.11022e-15       0.00000e+00       8.32667e-17
  8-2       9.85844e-01    1.45016e+00    7.88675e-01       1.00000e+01       5.55112e-16       2.22045e-16       1.11022e-15      -8.88178e-16      -3.33067e-16
  8-3       9.85844e-01    2.14135e+00    2.11325e-01       1.00000e+01       1.19349e-15       1.19349e-15       0.00000e+00      -1.11022e-16      -4.71845e-16
  8-4       9.85844e-01    1.45016e+00    2.11325e-01       1.00000e+01       9.99201e-16       1.11022e-15       7.77156e-16      -8.88178e-16      -1.11022e-16
  8-5       2.64156e-01    1.88317e+00    7.88675e-01       1.00000e+01      -1.22125e-15      -8.88178e-16       4.02456e-16      -8.32667e-17      -1.38778e-16
  8-6       2.64156e-01    1.27532e+00    7.88675e-01       1.00000e+01      -2.22045e-16       0.00000e+00       2.22045e-16      -2.22045e-16      -5.55112e-17
  8-7       2.64156e-01    1.88317e+00    2.11325e-01       1.00000e+01       1.11022e-16      -8.88178e-16       4.99600e-16      -8.32667e-17      -8.32667e-17
  8-8       2.64156e-01    1.27532e+00    2.11325e-01       1.00000e+01       2.22045e-16      -8.88178e-16       4.44089e-16      -1.11022e-16       5.55112e-17


 S O L U T I O N   T I M E   L O G   I N   S E C 

     TIME FOR INPUT PHASE = 8.10000e-02
     TIME FOR CALCULATION OF STIFFNESS MATRIX = 4.00000e-03
     TIME FOR FACTORIZATION AND LOAD CASE SOLUTIONS = 2.13000e-01

     T O T A L   S O L U T I O N   T I M E = 2.98000e-01

