TITLE :  STAP90 input data for Patch Test B of Q8
        (18:15:14 on May 30, 2025, Friday)

C O N T R O L   I N F O R M A T I O N

      NUMBER OF NODAL POINTS . . . . . . . . . . (NUMNP)  =    20
      NUMBER OF ELEMENT GROUPS . . . . . . . . . (NUMEG)  =     1
      NUMBER OF LOAD CASES . . . . . . . . . . . (NLCASE) =     0
      SOLUTION MODE  . . . . . . . . . . . . . . (MODEX)  =     1
         EQ.0, DATA CHECK
         EQ.1, EXECUTION

 N O D A L   P O I N T   D A T A

    NODE       BOUNDARY                         NODAL POINT
   NUMBER  CONDITION  CODES                     COORDINATES
        1    2    2    1       0.00000e+00    0.00000e+00    0.00000e+00
        2    2    2    1       2.50000e+00    0.00000e+00    0.00000e+00
        3    2    2    1       2.50000e+00    3.00000e+00    0.00000e+00
        4    2    2    1       0.00000e+00    2.00000e+00    0.00000e+00
        5    0    0    1       5.00000e-01    5.00000e-01    0.00000e+00
        6    0    0    1       2.00000e+00    7.50000e-01    0.00000e+00
        7    0    0    1       1.75000e+00    1.75000e+00    0.00000e+00
        8    0    0    1       6.50000e-01    1.60000e+00    0.00000e+00
        9    2    2    1       1.25000e+00    0.00000e+00    0.00000e+00
       10    2    2    1       2.50000e+00    1.50000e+00    0.00000e+00
       11    2    2    1       1.25000e+00    2.50000e+00    0.00000e+00
       12    2    2    1       0.00000e+00    1.00000e+00    0.00000e+00
       13    0    0    1       1.25000e+00    6.25000e-01    0.00000e+00
       14    0    0    1       1.87500e+00    1.25000e+00    0.00000e+00
       15    0    0    1       1.20000e+00    1.67500e+00    0.00000e+00
       16    0    0    1       5.75000e-01    1.05000e+00    0.00000e+00
       17    0    0    1       2.25000e+00    3.75000e-01    0.00000e+00
       18    0    0    1       2.12500e+00    2.37500e+00    0.00000e+00
       19    0    0    1       3.25000e-01    1.80000e+00    0.00000e+00
       20    0    0    1       2.50000e-01    2.50000e-01    0.00000e+00

 EQUATION NUMBERS

   NODE NUMBER   DEGREES 	OF 	FREEDOM
        N           X    Y    Z    x    y    z
        1           0    0    0  N/A  N/A  N/A
        2           0    0    0  N/A  N/A  N/A
        3           0    0    0  N/A  N/A  N/A
        4           0    0    0  N/A  N/A  N/A
        5           1    2    0  N/A  N/A  N/A
        6           3    4    0  N/A  N/A  N/A
        7           5    6    0  N/A  N/A  N/A
        8           7    8    0  N/A  N/A  N/A
        9           0    0    0  N/A  N/A  N/A
       10           0    0    0  N/A  N/A  N/A
       11           0    0    0  N/A  N/A  N/A
       12           0    0    0  N/A  N/A  N/A
       13           9   10    0  N/A  N/A  N/A
       14          11   12    0  N/A  N/A  N/A
       15          13   14    0  N/A  N/A  N/A
       16          15   16    0  N/A  N/A  N/A
       17          17   18    0  N/A  N/A  N/A
       18          19   20    0  N/A  N/A  N/A
       19          21   22    0  N/A  N/A  N/A
       20          23   24    0  N/A  N/A  N/A

 E L E M E N T   G R O U P   D A T A


 E L E M E N T   D E F I N I T I O N

 ELEMENT TYPE  . . . . . . . . . . . . .( NPAR(1) ) . . =    4
     EQ.1, TRUSS ELEMENTS
     EQ.2, ELEMENTS CURRENTLY
     EQ.3, NOT AVAILABLE
     EQ.4, Q8
     EQ.7, H8

 NUMBER OF ELEMENTS. . . . . . . . . . .( NPAR(2) ) . . =    5

 M A T E R I A L   D E F I N I T I O N

 NUMBER OF DIFFERENT SETS OF MATERIAL    1

  SET       YOUNG'S        POISSON'S        THICK        PLANE-
 NUMBER     MODULUS          RATIO          -NESS        STRAIN
               E              nu              t           FLAG
    1     1.00000e+03     3.00000e-01     1.00000e+00       0


 E L E M E N T   I N F O R M A T I O N
 ELEMENT     NODE       NODE     	NODE      NODE      NODE       NODE        NODE        NODE        MATERIAL
 NUMBER-N      I          J         K         L         M          N           O           P          SET NUMBER
    1          1          2          6          5          9         17         13         20           1
    2          2          3          7          6         10         18         14         17           1
    3          3          4          8          7         11         19         15         18           1
    4          4          1          5          8         12         20         16         19           1
    5          5          6          7          8         13         14         15         16           1

	TOTAL SYSTEM DATA

     NUMBER OF EQUATIONS . . . . . . . . . . . . . .(NEQ) = 24
     NUMBER OF MATRIX ELEMENTS . . . . . . . . . . .(NWK) = 296
     MAXIMUM HALF BANDWIDTH  . . . . . . . . . . . .(MK ) = 24
     MEAN HALF BANDWIDTH . . . . . . . . . . . . . .(MM ) = 12


 D I S P L A C E M E N T S

  NODE            X-DISPLACEMENT    Y-DISPLACEMENT    Z-DISPLACEMENT    X-ROTATION    Y-ROTATION    Z-ROTATION
    1               0.00000e+00       0.00000e+00       0.00000e+00         N/A          N/A            N/A
    2               2.50000e-02       0.00000e+00       0.00000e+00         N/A          N/A            N/A
    3               2.50000e-02      -9.00000e-03       0.00000e+00         N/A          N/A            N/A
    4               0.00000e+00      -6.00000e-03       0.00000e+00         N/A          N/A            N/A
    5               5.00000e-03      -1.50000e-03       0.00000e+00         N/A          N/A            N/A
    6               2.00000e-02      -2.25000e-03       0.00000e+00         N/A          N/A            N/A
    7               1.75000e-02      -5.25000e-03       0.00000e+00         N/A          N/A            N/A
    8               6.50000e-03      -4.80000e-03       0.00000e+00         N/A          N/A            N/A
    9               1.25000e-02       0.00000e+00       0.00000e+00         N/A          N/A            N/A
   10               2.50000e-02      -4.50000e-03       0.00000e+00         N/A          N/A            N/A
   11               1.25000e-02      -7.50000e-03       0.00000e+00         N/A          N/A            N/A
   12               0.00000e+00      -3.00000e-03       0.00000e+00         N/A          N/A            N/A
   13               1.25000e-02      -1.87500e-03       0.00000e+00         N/A          N/A            N/A
   14               1.87500e-02      -3.75000e-03       0.00000e+00         N/A          N/A            N/A
   15               1.20000e-02      -5.02500e-03       0.00000e+00         N/A          N/A            N/A
   16               5.75000e-03      -3.15000e-03       0.00000e+00         N/A          N/A            N/A
   17               2.25000e-02      -1.12500e-03       0.00000e+00         N/A          N/A            N/A
   18               2.12500e-02      -7.12500e-03       0.00000e+00         N/A          N/A            N/A
   19               3.25000e-03      -5.40000e-03       0.00000e+00         N/A          N/A            N/A
   20               2.50000e-03      -7.50000e-04       0.00000e+00         N/A          N/A            N/A

 S T R E S S  C A L C U L A T I O N S  F O R  E L E M E N T  G R O U P    1

ELEMENT NUMBER	  	x-coord	    	    y-coord           Sigma_xx             sigma_yy               Sigma_xy
GAUSSPOINT NUMBER
       1-1           5.89316e-01           1.16827e-01       1.00000e+01          -2.66454e-15           9.85323e-16
       1-2           7.55983e-01           4.36004e-01       1.00000e+01           4.44089e-16          -3.31029e-15
       1-3           1.91068e+00           1.47329e-01       1.00000e+01           1.66533e-16           4.63518e-15
       1-4           1.74402e+00           5.49840e-01       1.00000e+01          -2.99760e-15           2.44249e-15
       2-1           2.38317e+00           7.03152e-01       1.00000e+01          -7.66054e-15          -1.55431e-15
       2-2           2.06400e+00           8.92148e-01       1.00000e+01           8.36484e-15          -3.10862e-15
       2-3           2.35267e+00           2.19119e+00       1.00000e+01           7.32747e-15           4.80171e-15
       2-4           1.95016e+00           1.71351e+00       1.00000e+01          -2.22045e-15          -1.66533e-16
       3-1           1.87572e+00           2.56248e+00       1.00000e+01           7.10543e-15           1.46549e-14
       3-2           1.61351e+00           1.94450e+00       1.00000e+01           7.10543e-15           6.88338e-15
       3-3           6.03152e-01           2.08884e+00       1.00000e+01          -6.21725e-15           5.32907e-15
       3-4           8.07618e-01           1.75419e+00       1.00000e+01           4.44089e-15           3.21965e-15
       4-1           1.30662e-01           1.53301e+00       1.00000e+01          -1.55431e-15           0.00000e+00
       4-2           4.87639e-01           1.41188e+00       1.00000e+01           2.66454e-15          -4.44089e-15
       4-3           1.12361e-01           4.88120e-01       1.00000e+01          -2.22045e-15          -1.77636e-15
       4-4           4.19338e-01           6.66987e-01       1.00000e+01          -1.77636e-15           4.44089e-16
       5-1           8.30823e-01           7.80823e-01       1.00000e+01           8.88178e-16           5.55112e-16
       5-2           8.68622e-01           1.40371e+00       1.00000e+01           1.77636e-15          -8.60423e-15
       5-3           1.64804e+00           9.12959e-01       1.00000e+01           5.77316e-15          -6.43929e-15
       5-4           1.55251e+00           1.50251e+00       1.00000e+01          -1.99840e-15          -9.32587e-15


 S O L U T I O N   T I M E   L O G   I N   S E C 

     TIME FOR INPUT PHASE = 6.10000e-02
     TIME FOR CALCULATION OF STIFFNESS MATRIX = 0.00000e+00
     TIME FOR FACTORIZATION AND LOAD CASE SOLUTIONS = 8.50000e-02

     T O T A L   S O L U T I O N   T I M E = 1.46000e-01

