TITLE :  STAP90 input data for Patch Test B of Q4
        (14:15:58 on May 30, 2025, Friday)

C O N T R O L   I N F O R M A T I O N

      NUMBER OF NODAL POINTS . . . . . . . . . . (NUMNP)  =     8
      NUMBER OF ELEMENT GROUPS . . . . . . . . . (NUMEG)  =     1
      NUMBER OF LOAD CASES . . . . . . . . . . . (NLCASE) =     0
      SOLUTION MODE  . . . . . . . . . . . . . . (MODEX)  =     1
         EQ.0, DATA CHECK
         EQ.1, EXECUTION

 N O D A L   P O I N T   D A T A

    NODE       BOUNDARY                         NODAL POINT
   NUMBER  CONDITION  CODES                     COORDINATES
        1    2    2    1       0.00000e+00    0.00000e+00    0.00000e+00
        2    2    2    1       2.50000e+00    0.00000e+00    0.00000e+00
        3    2    2    1       2.50000e+00    3.00000e+00    0.00000e+00
        4    2    2    1       0.00000e+00    2.00000e+00    0.00000e+00
        5    0    0    1       5.00000e-01    5.00000e-01    0.00000e+00
        6    0    0    1       2.00000e+00    7.50000e-01    0.00000e+00
        7    0    0    1       1.75000e+00    1.75000e+00    0.00000e+00
        8    0    0    1       6.50000e-01    1.60000e+00    0.00000e+00

 EQUATION NUMBERS

   NODE NUMBER   DEGREES 	OF 	FREEDOM
        N           X    Y    Z    x    y    z
        1           0    0    0  N/A  N/A  N/A
        2           0    0    0  N/A  N/A  N/A
        3           0    0    0  N/A  N/A  N/A
        4           0    0    0  N/A  N/A  N/A
        5           1    2    0  N/A  N/A  N/A
        6           3    4    0  N/A  N/A  N/A
        7           5    6    0  N/A  N/A  N/A
        8           7    8    0  N/A  N/A  N/A

 E L E M E N T   G R O U P   D A T A


 E L E M E N T   D E F I N I T I O N

 ELEMENT TYPE  . . . . . . . . . . . . .( NPAR(1) ) . . =    3
     EQ.1, TRUSS ELEMENTS
     EQ.2, ELEMENTS CURRENTLY
     EQ.3, NOT AVAILABLE
     EQ.4, Q8
     EQ.7, H8

 NUMBER OF ELEMENTS. . . . . . . . . . .( NPAR(2) ) . . =    5

 M A T E R I A L   D E F I N I T I O N

 NUMBER OF DIFFERENT SETS OF MATERIAL
 AND CROSS-SECTIONAL  CONSTANTS  . . . .( NPAR(3) ) . . =    1

  SET       YOUNG'S        POISSON'S        THICK        PLANE-
 NUMBER     MODULUS          RATIO          -NESS        STRAIN
               E              nu              t           FLAG
    1     1.00000e+03     3.00000e-01     1.00000e+00       0


 E L E M E N T   I N F O R M A T I O N
 ELEMENT     NODE       NODE     	NODE     NODE       MATERIAL
 NUMBER-N      I          J        K        L       SET NUMBER
    1          1          2          6        5           1
    2          2          3          7        6           1
    3          3          4          8        7           1
    4          4          1          5        8           1
    5          5          6          7        8           1

	TOTAL SYSTEM DATA

     NUMBER OF EQUATIONS . . . . . . . . . . . . . .(NEQ) = 8
     NUMBER OF MATRIX ELEMENTS . . . . . . . . . . .(NWK) = 36
     MAXIMUM HALF BANDWIDTH  . . . . . . . . . . . .(MK ) = 8
     MEAN HALF BANDWIDTH . . . . . . . . . . . . . .(MM ) = 4


 D I S P L A C E M E N T S

  NODE            X-DISPLACEMENT    Y-DISPLACEMENT    Z-DISPLACEMENT    X-ROTATION    Y-ROTATION    Z-ROTATION
    1               0.00000e+00       0.00000e+00       0.00000e+00         N/A          N/A            N/A
    2               2.50000e-02       0.00000e+00       0.00000e+00         N/A          N/A            N/A
    3               2.50000e-02      -9.00000e-03       0.00000e+00         N/A          N/A            N/A
    4               0.00000e+00      -6.00000e-03       0.00000e+00         N/A          N/A            N/A
    5               5.00000e-03      -1.50000e-03       0.00000e+00         N/A          N/A            N/A
    6               2.00000e-02      -2.25000e-03       0.00000e+00         N/A          N/A            N/A
    7               1.75000e-02      -5.25000e-03       0.00000e+00         N/A          N/A            N/A
    8               6.50000e-03      -4.80000e-03       0.00000e+00         N/A          N/A            N/A

 S T R E S S  C A L C U L A T I O N S  F O R  E L E M E N T  G R O U P    1

ELEMENT NUMBER	  	x-coord	    	    y-coord           Sigma_xx             sigma_yy               Sigma_xy
GAUSSPOINT NUMBER
       1-1           5.89316e-01           1.16827e-01       1.72115e-01          -2.94837e+00           5.47173e+00
       1-2           7.55983e-01           4.36004e-01       5.10297e+00          -1.46911e+00           4.57056e+00
       1-3           1.91068e+00           1.47329e-01      -8.79882e-02          -3.02640e+00           9.41546e+00
       1-4           1.74402e+00           5.49840e-01       3.34437e+00          -1.99669e+00           9.91289e+00
       2-1           2.38317e+00           7.03152e-01      -3.93622e+01          -1.19494e+01           1.61347e+00
       2-2           2.06400e+00           8.92148e-01      -4.34856e+01          -1.40699e+01          -8.52856e-01
       2-3           2.35267e+00           2.19119e+00      -2.75165e+01          -8.36259e+00           2.31971e+00
       2-4           1.95016e+00           1.71351e+00      -2.30621e+01          -7.55883e+00           1.19728e+00
       3-1           1.87572e+00           2.56248e+00       1.01551e+01           8.78741e+00          -7.51835e+00
       3-2           1.61351e+00           1.94450e+00       1.34831e+01           9.51707e+00          -7.78211e+00
       3-3           6.03152e-01           2.08884e+00       8.27872e+00           9.34271e+00          -5.56729e+00
       3-4           8.07618e-01           1.75419e+00       1.18096e+01           1.07875e+01          -4.59670e+00
       4-1           1.30662e-01           1.53301e+00       1.09008e+01           3.00272e+00          -2.58696e+00
       4-2           4.87639e-01           1.41188e+00       1.05386e+01           1.79526e+00          -2.73037e+00
       4-3           1.12361e-01           4.88120e-01       1.08848e+01           2.94926e+00          -1.51866e+00
       4-4           4.19338e-01           6.66987e-01       1.04184e+01           1.39476e+00          -1.20164e+00
       5-1           8.30823e-01           7.80823e-01       1.00000e+01           1.33227e-15          -1.66533e-16
       5-2           8.68622e-01           1.40371e+00       1.00000e+01           8.88178e-16           2.22045e-16
       5-3           1.64804e+00           9.12959e-01       1.00000e+01          -5.55112e-16           1.38778e-15
       5-4           1.55251e+00           1.50251e+00       1.00000e+01           1.66533e-15          -4.44089e-16


 S O L U T I O N   T I M E   L O G   I N   S E C 

     TIME FOR INPUT PHASE = 4.70000e-02
     TIME FOR CALCULATION OF STIFFNESS MATRIX = 0.00000e+00
     TIME FOR FACTORIZATION AND LOAD CASE SOLUTIONS = 5.10000e-02

     T O T A L   S O L U T I O N   T I M E = 9.80000e-02

