TITLE :  STAP90 input data for Patch Test C of Q4
        (16:59:6 on June 10, 2025, Tuesday)

C O N T R O L   I N F O R M A T I O N

      NUMBER OF NODAL POINTS . . . . . . . . . . (NUMNP)  =     8
      NUMBER OF ELEMENT GROUPS . . . . . . . . . (NUMEG)  =     1
      NUMBER OF LOAD CASES . . . . . . . . . . . (NLCASE) =     1
      SOLUTION MODE  . . . . . . . . . . . . . . (MODEX)  =     1
         EQ.0, DATA CHECK
         EQ.1, EXECUTION

 N O D A L   P O I N T   D A T A

    NODE       BOUNDARY                         NODAL POINT
   NUMBER  CONDITION  CODES                     COORDINATES
        1    1    1    1       0.00000e+00    0.00000e+00    0.00000e+00
        2    0    0    1       2.50000e+00    0.00000e+00    0.00000e+00
        3    0    0    1       2.50000e+00    3.00000e+00    0.00000e+00
        4    1    0    1       0.00000e+00    2.00000e+00    0.00000e+00
        5    0    0    1       5.00000e-01    5.00000e-01    0.00000e+00
        6    0    0    1       2.00000e+00    7.50000e-01    0.00000e+00
        7    0    0    1       1.75000e+00    1.75000e+00    0.00000e+00
        8    0    0    1       6.50000e-01    1.60000e+00    0.00000e+00

 EQUATION NUMBERS

   NODE NUMBER   DEGREES 	OF 	FREEDOM
        N           X    Y    Z    x    y    z
        1           0    0    0  N/A  N/A  N/A
        2           1    2    0  N/A  N/A  N/A
        3           3    4    0  N/A  N/A  N/A
        4           0    5    0  N/A  N/A  N/A
        5           6    7    0  N/A  N/A  N/A
        6           8    9    0  N/A  N/A  N/A
        7          10   11    0  N/A  N/A  N/A
        8          12   13    0  N/A  N/A  N/A

 L O A D   C A S E   D A T A

     LOAD CASE NUMBER . . . . . . . =     1
     NUMBER OF CONCENTRATED LOADS . =     4

    NODE       DIRECTION      LOAD
   NUMBER                   MAGNITUDE
      1            1       -1.00000e+01
      2            1        1.50000e+01
      3            1        1.00000e+01
      4            1       -1.50000e+01

 E L E M E N T   G R O U P   D A T A


 E L E M E N T   D E F I N I T I O N

 ELEMENT TYPE  . . . . . . . . . . . . .( NPAR(1) ) . . =    3
     EQ.1, TRUSS ELEMENTS
     EQ.2, CST
     EQ.3, Q4
     EQ.4, Q8
     EQ.7, H8
     EQ.11, Tet4
     EQ.12, T6

 NUMBER OF ELEMENTS. . . . . . . . . . .( NPAR(2) ) . . =    5

 M A T E R I A L   D E F I N I T I O N

 NUMBER OF DIFFERENT SETS OF MATERIAL
 AND CROSS-SECTIONAL  CONSTANTS  . . . .( NPAR(3) ) . . =    1

  SET       YOUNG'S        POISSON'S        THICK        PLANE-
 NUMBER     MODULUS          RATIO          -NESS        STRAIN
               E              nu              t           FLAG
    1     1.00000e+03     3.00000e-01     1.00000e+00       0


 E L E M E N T   I N F O R M A T I O N
 ELEMENT     NODE       NODE     	NODE     NODE       MATERIAL
 NUMBER-N      I          J        K        L       SET NUMBER
    1          1          2          6        5           1
    2          2          3          7        6           1
    3          3          4          8        7           1
    4          4          1          5        8           1
    5          5          6          7        8           1

	TOTAL SYSTEM DATA

     NUMBER OF EQUATIONS . . . . . . . . . . . . . .(NEQ) = 13
     NUMBER OF MATRIX ELEMENTS . . . . . . . . . . .(NWK) = 85
     MAXIMUM HALF BANDWIDTH  . . . . . . . . . . . .(MK ) = 11
     MEAN HALF BANDWIDTH . . . . . . . . . . . . . .(MM ) = 6


 D I S P L A C E M E N T S

  NODE            X-DISPLACEMENT    Y-DISPLACEMENT    Z-DISPLACEMENT    X-ROTATION    Y-ROTATION    Z-ROTATION
    1               0.00000e+00       0.00000e+00       0.00000e+00         N/A          N/A            N/A
    2               2.50000e-02      -3.94650e-17       0.00000e+00         N/A          N/A            N/A
    3               2.50000e-02      -9.00000e-03       0.00000e+00         N/A          N/A            N/A
    4               0.00000e+00      -6.00000e-03       0.00000e+00         N/A          N/A            N/A
    5               5.00000e-03      -1.50000e-03       0.00000e+00         N/A          N/A            N/A
    6               2.00000e-02      -2.25000e-03       0.00000e+00         N/A          N/A            N/A
    7               1.75000e-02      -5.25000e-03       0.00000e+00         N/A          N/A            N/A
    8               6.50000e-03      -4.80000e-03       0.00000e+00         N/A          N/A            N/A

 S T R E S S  C A L C U L A T I O N S  F O R  E L E M E N T  G R O U P    1

ELEMENT NUMBER	  	x-coord	    	    y-coord           Sigma_xx             sigma_yy               Sigma_xy
GAUSSPOINT NUMBER
       1-1           5.89316e-01           1.16827e-01       1.00000e+01           5.32907e-15          -4.84335e-15
       1-2           7.55983e-01           4.36004e-01       1.00000e+01           7.99361e-15          -6.16174e-15
       1-3           1.91068e+00           1.47329e-01       1.00000e+01           5.55112e-16           8.46545e-16
       1-4           1.74402e+00           5.49840e-01       1.00000e+01           1.49880e-15           5.55112e-16
       2-1           2.38317e+00           7.03152e-01       1.00000e+01           2.77556e-15           3.10862e-15
       2-2           2.06400e+00           8.92148e-01       1.00000e+01          -4.44089e-16           1.77636e-15
       2-3           2.35267e+00           2.19119e+00       1.00000e+01           1.72085e-15           3.13638e-15
       2-4           1.95016e+00           1.71351e+00       1.00000e+01           1.11022e-15           2.94209e-15
       3-1           1.87572e+00           2.56248e+00       1.00000e+01           1.77636e-15           1.44329e-15
       3-2           1.61351e+00           1.94450e+00       1.00000e+01          -8.88178e-16           1.77636e-15
       3-3           6.03152e-01           2.08884e+00       1.00000e+01           6.66134e-16          -1.66533e-16
       3-4           8.07618e-01           1.75419e+00       1.00000e+01          -3.17801e-15           4.44089e-16
       4-1           1.30662e-01           1.53301e+00       1.00000e+01           7.93809e-15          -6.21725e-15
       4-2           4.87639e-01           1.41188e+00       1.00000e+01           5.77316e-15          -4.44089e-15
       4-3           1.12361e-01           4.88120e-01       1.00000e+01           3.99680e-15          -4.21885e-15
       4-4           4.19338e-01           6.66987e-01       1.00000e+01           8.88178e-16          -1.84575e-15
       5-1           8.30823e-01           7.80823e-01       1.00000e+01           2.66454e-15          -2.27596e-15
       5-2           8.68622e-01           1.40371e+00       1.00000e+01           5.32907e-15          -3.77476e-15
       5-3           1.64804e+00           9.12959e-01       1.00000e+01          -3.99680e-15           2.83107e-15
       5-4           1.55251e+00           1.50251e+00       1.00000e+01           0.00000e+00          -2.22045e-16


 S O L U T I O N   T I M E   L O G   I N   S E C 

     TIME FOR INPUT PHASE = 5.10000e-02
     TIME FOR CALCULATION OF STIFFNESS MATRIX = 0.00000e+00
     TIME FOR FACTORIZATION AND LOAD CASE SOLUTIONS = 5.00000e-02

     T O T A L   S O L U T I O N   T I M E = 1.01000e-01

