TITLE : STAP90 input data for Patch Test B of Tet4
        (12:56:49 on June 6, 2025, Friday)

C O N T R O L   I N F O R M A T I O N

      NUMBER OF NODAL POINTS . . . . . . . . . . (NUMNP)  =     9
      NUMBER OF ELEMENT GROUPS . . . . . . . . . (NUMEG)  =     1
      NUMBER OF LOAD CASES . . . . . . . . . . . (NLCASE) =     0
      SOLUTION MODE  . . . . . . . . . . . . . . (MODEX)  =     1
         EQ.0, DATA CHECK
         EQ.1, EXECUTION

 N O D A L   P O I N T   D A T A

    NODE       BOUNDARY                         NODAL POINT
   NUMBER  CONDITION  CODES                     COORDINATES
        1    2    2    2       2.50000e+00    3.00000e+00    2.00000e+00
        2    2    2    2       2.50000e+00    0.00000e+00    2.00000e+00
        3    2    2    2       2.50000e+00    0.00000e+00    0.00000e+00
        4    2    2    2       2.50000e+00    3.00000e+00    0.00000e+00
        5    2    2    2       0.00000e+00    0.00000e+00    2.00000e+00
        6    2    2    2       0.00000e+00    0.00000e+00    0.00000e+00
        7    2    2    2       0.00000e+00    2.00000e+00    0.00000e+00
        8    2    2    2       0.00000e+00    2.00000e+00    2.00000e+00
        9    0    0    0       1.05783e+00    1.18233e+00    1.02378e+00

 EQUATION NUMBERS

   NODE NUMBER   DEGREES 	OF 	FREEDOM
        N           X    Y    Z    x    y    z
        1           0    0    0  N/A  N/A  N/A
        2           0    0    0  N/A  N/A  N/A
        3           0    0    0  N/A  N/A  N/A
        4           0    0    0  N/A  N/A  N/A
        5           0    0    0  N/A  N/A  N/A
        6           0    0    0  N/A  N/A  N/A
        7           0    0    0  N/A  N/A  N/A
        8           0    0    0  N/A  N/A  N/A
        9           1    2    3  N/A  N/A  N/A

 E L E M E N T   G R O U P   D A T A


 E L E M E N T   D E F I N I T I O N

 ELEMENT TYPE  . . . . . . . . . . . . .( NPAR(1) ) . . =   11
     EQ.1, TRUSS ELEMENTS
     EQ.2, CST
     EQ.3, Q4
     EQ.4, Q8
     EQ.7, H8
     EQ.11, Tet4

 NUMBER OF ELEMENTS. . . . . . . . . . .( NPAR(2) ) . . =   12

 M A T E R I A L   D E F I N I T I O N

 NUMBER OF DIFFERENT SETS OF MATERIAL    1

  SET       YOUNG'S        POISSON'S       
 NUMBER     MODULUS          RATIO          
               E              nu            
    1     1.00000e+03     3.00000e-01


 E L E M E N T   I N F O R M A T I O N
 ELEMENT     NODE       NODE     	NODE      NODE        MATERIAL
 NUMBER-N      I          J         K         L          SET NUMBER
    1          7          3          9          6           1
    2          7          9          4          8           1
    3          9          2          6          3           1
    4          9          1          8          2           1
    5          1          3          9          4           1
    6          4          1          8          9           1
    7          2          3          9          1           1
    8          7          9          5          6           1
    9          9          6          2          5           1
   10          2          9          5          8           1
   11          8          9          5          7           1
   12          3          9          4          7           1

	TOTAL SYSTEM DATA

     NUMBER OF EQUATIONS . . . . . . . . . . . . . .(NEQ) = 3
     NUMBER OF MATRIX ELEMENTS . . . . . . . . . . .(NWK) = 6
     MAXIMUM HALF BANDWIDTH  . . . . . . . . . . . .(MK ) = 3
     MEAN HALF BANDWIDTH . . . . . . . . . . . . . .(MM ) = 2


 D I S P L A C E M E N T S

  NODE            X-DISPLACEMENT    Y-DISPLACEMENT    Z-DISPLACEMENT    X-ROTATION    Y-ROTATION    Z-ROTATION
    1               2.50000e-02      -9.00000e-03      -6.00000e-03         N/A          N/A            N/A
    2               2.50000e-02       0.00000e+00      -6.00000e-03         N/A          N/A            N/A
    3               2.50000e-02       0.00000e+00       0.00000e+00         N/A          N/A            N/A
    4               2.50000e-02      -9.00000e-03       0.00000e+00         N/A          N/A            N/A
    5               0.00000e+00       0.00000e+00      -6.00000e-03         N/A          N/A            N/A
    6               0.00000e+00       0.00000e+00       0.00000e+00         N/A          N/A            N/A
    7               0.00000e+00      -6.00000e-03       0.00000e+00         N/A          N/A            N/A
    8               0.00000e+00      -6.00000e-03      -6.00000e-03         N/A          N/A            N/A
    9               1.05783e-02      -3.54700e-03      -3.07134e-03         N/A          N/A            N/A

 S T R E S S  C A L C U L A T I O N S  F O R  E L E M E N T  G R O U P    1

ELEMENT NUMBER   x-coord      y-coord      z-coord           Sigma_xx           Sigma_yy           Sigma_zz           Sigma_xy           Sigma_xz           Sigma_yz
  NUMBER
    1           1.00000e+01       6.66134e-16           8.88178e-16           0.00000e+00           6.67201e-16           8.34002e-16
    2           1.00000e+01      -1.11022e-15          -8.88178e-16          -5.00401e-16           0.00000e+00           0.00000e+00
    3           1.00000e+01       2.22045e-15           0.00000e+00           8.34002e-16           0.00000e+00           0.00000e+00
    4           1.00000e+01       2.22045e-16           0.00000e+00          -6.67201e-16           8.34002e-17          -6.67201e-16
    5           1.00000e+01      -1.33227e-15          -1.77636e-15          -2.50201e-16           0.00000e+00           0.00000e+00
    6           1.00000e+01      -2.22045e-16           8.88178e-16          -5.83801e-16           0.00000e+00           0.00000e+00
    7           1.00000e+01       4.44089e-16           0.00000e+00          -1.16760e-15           0.00000e+00           0.00000e+00
    8           1.00000e+01       4.44089e-16           0.00000e+00           8.34002e-16           0.00000e+00           0.00000e+00
    9           1.00000e+01       2.22045e-15           0.00000e+00           6.67201e-16           0.00000e+00           6.25501e-17
   10           1.00000e+01       4.44089e-16           0.00000e+00           0.00000e+00          -8.34002e-16          -8.34002e-16
   11           1.00000e+01       4.44089e-16           0.00000e+00           6.67201e-16           0.00000e+00           0.00000e+00
   12           1.00000e+01       6.66134e-16           8.88178e-16           1.66800e-16           1.45950e-16           6.67201e-16


 S O L U T I O N   T I M E   L O G   I N   S E C 

     TIME FOR INPUT PHASE = 6.00000e-02
     TIME FOR CALCULATION OF STIFFNESS MATRIX = 1.00000e-03
     TIME FOR FACTORIZATION AND LOAD CASE SOLUTIONS = 3.70000e-02

     T O T A L   S O L U T I O N   T I M E = 9.80000e-02

