TITLE : STAP90 input data for Patch Test C of T6
        (13:48:24 on June 7, 2025, Saturday)

C O N T R O L   I N F O R M A T I O N

      NUMBER OF NODAL POINTS . . . . . . . . . . (NUMNP)  =    13
      NUMBER OF ELEMENT GROUPS . . . . . . . . . (NUMEG)  =     1
      NUMBER OF LOAD CASES . . . . . . . . . . . (NLCASE) =     1
      SOLUTION MODE  . . . . . . . . . . . . . . (MODEX)  =     1
         EQ.0, DATA CHECK
         EQ.1, EXECUTION

 N O D A L   P O I N T   D A T A

    NODE       BOUNDARY                         NODAL POINT
   NUMBER  CONDITION  CODES                     COORDINATES
        1    1    1    1       0.00000e+00    0.00000e+00    0.00000e+00
        2    0    0    1       2.50000e+00    3.00000e+00    0.00000e+00
        3    0    0    1       0.00000e+00    2.00000e+00    0.00000e+00
        4    0    1    1       2.50000e+00    0.00000e+00    0.00000e+00
        5    0    0    1       1.25000e+00    1.50000e+00    0.00000e+00
        6    0    0    1       6.25000e-01    7.50000e-01    0.00000e+00
        7    0    0    1       6.25000e-01    1.75000e+00    0.00000e+00
        8    0    0    1       0.00000e+00    1.00000e+00    0.00000e+00
        9    0    0    1       1.87500e+00    2.25000e+00    0.00000e+00
       10    0    0    1       1.25000e+00    2.50000e+00    0.00000e+00
       11    0    0    1       1.87500e+00    7.50000e-01    0.00000e+00
       12    0    0    1       2.50000e+00    1.50000e+00    0.00000e+00
       13    0    0    1       1.25000e+00    0.00000e+00    0.00000e+00

 EQUATION NUMBERS

   NODE NUMBER   DEGREES 	OF 	FREEDOM
        N           X    Y    Z    x    y    z
        1           0    0    0  N/A  N/A  N/A
        2           1    2    0  N/A  N/A  N/A
        3           3    4    0  N/A  N/A  N/A
        4           5    0    0  N/A  N/A  N/A
        5           6    7    0  N/A  N/A  N/A
        6           8    9    0  N/A  N/A  N/A
        7          10   11    0  N/A  N/A  N/A
        8          12   13    0  N/A  N/A  N/A
        9          14   15    0  N/A  N/A  N/A
       10          16   17    0  N/A  N/A  N/A
       11          18   19    0  N/A  N/A  N/A
       12          20   21    0  N/A  N/A  N/A
       13          22   23    0  N/A  N/A  N/A

 L O A D   C A S E   D A T A

     LOAD CASE NUMBER . . . . . . . =     1
     NUMBER OF CONCENTRATED LOADS . =     7

    NODE       DIRECTION      LOAD
   NUMBER                   MAGNITUDE
      4            1        5.00000e+00
     12            1        2.00000e+01
      2            1        3.33333e+00
     10            1       -6.66667e+00
      3            1       -5.00000e+00
      8            1       -1.33333e+01
      1            1       -3.33333e+00

 E L E M E N T   G R O U P   D A T A


 E L E M E N T   D E F I N I T I O N

 ELEMENT TYPE  . . . . . . . . . . . . .( NPAR(1) ) . . =   12
     EQ.1, TRUSS ELEMENTS
     EQ.2, CST
     EQ.3, Q4
     EQ.4, Q8
     EQ.7, H8
     EQ.11, Tet4
     EQ.12, T6

 NUMBER OF ELEMENTS. . . . . . . . . . .( NPAR(2) ) . . =    4

 M A T E R I A L   D E F I N I T I O N

 NUMBER OF DIFFERENT SETS OF MATERIAL    1

  SET       YOUNG'S        POISSON'S        THICK        PLANE-
 NUMBER     MODULUS          RATIO          -NESS        STRAIN
               E              nu              t           FLAG
    1     1.00000e+03     3.00000e-01     1.00000e+00       0


 E L E M E N T   I N F O R M A T I O N
 ELEMENT     NODE       NODE     	NODE      NODE      NODE       NODE        MATERIAL
 NUMBER-N      I          J         K         L         M          N          SET NUMBER
    1          1          5          3          6          7          8           1
    2          5          2          3          9         10          7           1
    3          2          5          4          9         11         12           1
    4          5          1          4          6         13         11           1

	TOTAL SYSTEM DATA

     NUMBER OF EQUATIONS . . . . . . . . . . . . . .(NEQ) = 23
     NUMBER OF MATRIX ELEMENTS . . . . . . . . . . .(NWK) = 260
     MAXIMUM HALF BANDWIDTH  . . . . . . . . . . . .(MK ) = 21
     MEAN HALF BANDWIDTH . . . . . . . . . . . . . .(MM ) = 11


 D I S P L A C E M E N T S

  NODE            X-DISPLACEMENT    Y-DISPLACEMENT    Z-DISPLACEMENT    X-ROTATION    Y-ROTATION    Z-ROTATION
    1               0.00000e+00       0.00000e+00       0.00000e+00         N/A          N/A            N/A
    2               2.50000e-02      -9.00000e-03       0.00000e+00         N/A          N/A            N/A
    3               1.36609e-16      -6.00000e-03       0.00000e+00         N/A          N/A            N/A
    4               2.50000e-02       0.00000e+00       0.00000e+00         N/A          N/A            N/A
    5               1.25000e-02      -4.50000e-03       0.00000e+00         N/A          N/A            N/A
    6               6.25000e-03      -2.25000e-03       0.00000e+00         N/A          N/A            N/A
    7               6.25000e-03      -5.25000e-03       0.00000e+00         N/A          N/A            N/A
    8               1.23084e-16      -3.00000e-03       0.00000e+00         N/A          N/A            N/A
    9               1.87500e-02      -6.75000e-03       0.00000e+00         N/A          N/A            N/A
   10               1.25000e-02      -7.50000e-03       0.00000e+00         N/A          N/A            N/A
   11               1.87500e-02      -2.25000e-03       0.00000e+00         N/A          N/A            N/A
   12               2.50000e-02      -4.50000e-03       0.00000e+00         N/A          N/A            N/A
   13               1.25000e-02      -3.28636e-17       0.00000e+00         N/A          N/A            N/A

 S T R E S S  C A L C U L A T I O N S  F O R  E L E M E N T  G R O U P    1

ELEMENT NUMBER          x-coord              y-coord           Sigma_xx             Sigma_yy             Sigma_xy
GAUSSPOINT NUMBER
       1-1           2.08333e-01           1.58333e+00       1.00000e+01          -1.15463e-14          -9.99201e-15
       1-2           2.08333e-01           5.83333e-01       1.00000e+01           1.33227e-14           1.86517e-14
       1-3           8.33333e-01           1.33333e+00       1.00000e+01           1.90178e-14          -3.33067e-16
       2-1           6.25000e-01           2.08333e+00       1.00000e+01           5.32907e-15           2.88658e-15
       2-2           1.25000e+00           1.83333e+00       1.00000e+01           5.77316e-15           5.32907e-15
       2-3           1.87500e+00           2.58333e+00       1.00000e+01           2.22045e-15           4.99600e-16
       3-1           2.29167e+00           7.50000e-01       1.00000e+01          -3.33067e-14           2.22045e-15
       3-2           2.29167e+00           2.25000e+00       1.00000e+01          -6.21725e-15           5.32907e-15
       3-3           1.66667e+00           1.50000e+00       1.00000e+01          -1.10290e-15           3.21965e-15
       4-1           1.87500e+00           2.50000e-01       1.00000e+01          -7.10543e-15           8.54872e-15
       4-2           1.25000e+00           1.00000e+00       1.00000e+01           1.04361e-14           6.77236e-15
       4-3           6.25000e-01           2.50000e-01       1.00000e+01           9.65894e-15           1.61260e-14


 S O L U T I O N   T I M E   L O G   I N   S E C 

     TIME FOR INPUT PHASE = 4.00000e-02
     TIME FOR CALCULATION OF STIFFNESS MATRIX = 0.00000e+00
     TIME FOR FACTORIZATION AND LOAD CASE SOLUTIONS = 4.90000e-02

     T O T A L   S O L U T I O N   T I M E = 8.90000e-02

