TITLE : An_Example_Of_Q4_Element
        (16:42:46 on June 10, 2025, Tuesday)

C O N T R O L   I N F O R M A T I O N

      NUMBER OF NODAL POINTS . . . . . . . . . . (NUMNP)  =     6
      NUMBER OF ELEMENT GROUPS . . . . . . . . . (NUMEG)  =     1
      NUMBER OF LOAD CASES . . . . . . . . . . . (NLCASE) =     1
      SOLUTION MODE  . . . . . . . . . . . . . . (MODEX)  =     1
         EQ.0, DATA CHECK
         EQ.1, EXECUTION

 N O D A L   P O I N T   D A T A

    NODE       BOUNDARY                         NODAL POINT
   NUMBER  CONDITION  CODES                     COORDINATES
        1    1    1    1       0.00000e+00    1.00000e+00    0.00000e+00
        2    1    1    1       0.00000e+00    0.00000e+00    0.00000e+00
        3    0    0    1       1.00000e+00    1.00000e+00    0.00000e+00
        4    0    0    1       1.00000e+00    2.50000e-01    0.00000e+00
        5    0    0    1       2.00000e+00    1.00000e+00    0.00000e+00
        6    0    0    1       2.00000e+00    5.00000e-01    0.00000e+00

 EQUATION NUMBERS

   NODE NUMBER   DEGREES 	OF 	FREEDOM
        N           X    Y    Z    x    y    z
        1           0    0    0  N/A  N/A  N/A
        2           0    0    0  N/A  N/A  N/A
        3           1    2    0  N/A  N/A  N/A
        4           3    4    0  N/A  N/A  N/A
        5           5    6    0  N/A  N/A  N/A
        6           7    8    0  N/A  N/A  N/A

 L O A D   C A S E   D A T A

     LOAD CASE NUMBER . . . . . . . =     1
     NUMBER OF CONCENTRATED LOADS . =     3

    NODE       DIRECTION      LOAD
   NUMBER                   MAGNITUDE
      1            2       -1.00000e+01
      3            2       -2.00000e+01
      5            2       -1.00000e+01

 E L E M E N T   G R O U P   D A T A


 E L E M E N T   D E F I N I T I O N

 ELEMENT TYPE  . . . . . . . . . . . . .( NPAR(1) ) . . =    3
     EQ.1, TRUSS ELEMENTS
     EQ.2, CST
     EQ.3, Q4
     EQ.4, Q8
     EQ.7, H8
     EQ.11, Tet4
     EQ.12, T6

 NUMBER OF ELEMENTS. . . . . . . . . . .( NPAR(2) ) . . =    2

 M A T E R I A L   D E F I N I T I O N

 NUMBER OF DIFFERENT SETS OF MATERIAL
 AND CROSS-SECTIONAL  CONSTANTS  . . . .( NPAR(3) ) . . =    1

  SET       YOUNG'S        POISSON'S        THICK        PLANE-
 NUMBER     MODULUS          RATIO          -NESS        STRAIN
               E              nu              t           FLAG
    1     3.00000e+07     3.00000e-01     1.00000e+00       0


 E L E M E N T   I N F O R M A T I O N
 ELEMENT     NODE       NODE     	NODE     NODE       MATERIAL
 NUMBER-N      I          J        K        L       SET NUMBER
    1          1          2          4        3           1
    2          3          4          6        5           1

	TOTAL SYSTEM DATA

     NUMBER OF EQUATIONS . . . . . . . . . . . . . .(NEQ) = 8
     NUMBER OF MATRIX ELEMENTS . . . . . . . . . . .(NWK) = 36
     MAXIMUM HALF BANDWIDTH  . . . . . . . . . . . .(MK ) = 8
     MEAN HALF BANDWIDTH . . . . . . . . . . . . . .(MM ) = 4


 D I S P L A C E M E N T S

  NODE            X-DISPLACEMENT    Y-DISPLACEMENT    Z-DISPLACEMENT    X-ROTATION    Y-ROTATION    Z-ROTATION
    1               0.00000e+00       0.00000e+00       0.00000e+00         N/A          N/A            N/A
    2               0.00000e+00       0.00000e+00       0.00000e+00         N/A          N/A            N/A
    3               3.77596e-06      -6.89323e-06       0.00000e+00         N/A          N/A            N/A
    4              -2.72259e-06      -6.52863e-06       0.00000e+00         N/A          N/A            N/A
    5               4.89159e-06      -1.82064e-05       0.00000e+00         N/A          N/A            N/A
    6              -1.10175e-06      -1.80750e-05       0.00000e+00         N/A          N/A            N/A

 S T R E S S  C A L C U L A T I O N S  F O R  E L E M E N T  G R O U P    1

ELEMENT NUMBER	  	x-coord	    	    y-coord           Sigma_xx             sigma_yy               Sigma_xy
GAUSSPOINT NUMBER
       1-1           2.11325e-01           7.99840e-01       7.58786e+01           2.03232e+01          -6.18690e+01
       1-2           7.88675e-01           8.30342e-01       6.45472e+01           8.61894e+00          -4.76877e+00
       1-3           2.11325e-01           2.52992e-01      -5.47109e+01          -1.88537e+01          -5.93046e+01
       1-4           7.88675e-01           3.66827e-01      -8.95205e+01          -3.76014e+01          -1.74337e+00
       2-1           1.21132e+00           8.52671e-01       1.98572e+01          -7.61168e+00          -2.50427e+01
       2-2           1.78868e+00           8.83173e-01       1.78476e+01          -4.45158e+00          -3.58737e+00
       2-3           1.21132e+00           4.50160e-01      -1.41526e+01          -1.78146e+01          -2.58428e+01
       2-4           1.78868e+00           5.63996e-01      -2.50417e+01          -1.73184e+01          -4.59639e+00


 S O L U T I O N   T I M E   L O G   I N   S E C 

     TIME FOR INPUT PHASE = 3.30000e-02
     TIME FOR CALCULATION OF STIFFNESS MATRIX = 0.00000e+00
     TIME FOR FACTORIZATION AND LOAD CASE SOLUTIONS = 3.60000e-02

     T O T A L   S O L U T I O N   T I M E = 6.90000e-02

